     Program PWSCF v.7.3 starts on 27Jul2024 at 16:15:27

     Waiting for input...
     Reading input from standard input
Warning: card &CELL ignored
Warning: card CELL_DYNAMICS='BFGS' ignored
Warning: card PRESS=0.0 ignored
Warning: card CELL_DOFREE='2DXY' ignored
Warning: card / ignored

     Current dimensions of program PWSCF are:
     Max number of different atomic species (ntypx) = 10
     Max number of k-points (npk) =  40000
     Max angular momentum in pseudopotentials (lmaxx) =  4
read_pp_mesh; mismatch in mesh size, discarding the one in header
read_pp_mesh; mismatch in mesh size, discarding the one in header
read_pp_mesh; mismatch in mesh size, discarding the one in header
     Message from routine setup:
     using ibrav=0 with symmetry is DISCOURAGED, use correct ibrav instead

     Subspace diagonalization in iterative solution of the eigenvalue problem:
     a serial algorithm will be used

     Using Slab Decomposition

     bravais-lattice index     =            0
     lattice parameter (alat)  =      30.6689  a.u.
     unit-cell volume          =   10034.5744 (a.u.)^3
     number of atoms/cell      =           20
     number of atomic types    =            3
     number of electrons       =       220.00
     number of Kohn-Sham states=          132
     kinetic-energy cutoff     =      60.0000  Ry
     charge density cutoff     =     480.0000  Ry
     scf convergence threshold =      1.0E-08
     mixing beta               =       0.2000
     number of iterations used =            8  plain     mixing
     energy convergence thresh.=      1.0E-04
     force convergence thresh. =      1.0E-03
     Exchange-correlation= SLA PW PBX PBC
                           (   1   4   3   4   0   0   0)
     nstep                     =         2000

     celldm(1)=  30.668932  celldm(2)=   0.000000  celldm(3)=   0.000000
     celldm(4)=   0.000000  celldm(5)=   0.000000  celldm(6)=   0.000000

     crystal axes: (cart. coord. in units of alat)
               a(1) = (   1.000000   0.000000   0.000000 )
               a(2) = (   0.000000   0.225499   0.000000 )
               a(3) = (   0.000000   0.000000   1.542617 )

     reciprocal axes: (cart. coord. in units 2 pi/alat)
               b(1) = (  1.000000  0.000000  0.000000 )
               b(2) = (  0.000000  4.434608  0.000000 )
               b(3) = (  0.000000  0.000000  0.648249 )

     PseudoPot. # 1 for Ta read from file:
     /ddn/data/physics/eamoujaes/PSEUDO-CREATED/Ta.upf
     MD5 check sum: d865b2c2c09566b116f2b8decb2c153d
     Pseudo is Projector augmented-wave + core cor, Zval = 13.0
     Generated using ATOMPAW code
     Shape of augmentation charge: SINC**2
     Using radial grid of 2342 points,  6 beta functions with:
                l(1) =   0
                l(2) =   0
                l(3) =   1
                l(4) =   1
                l(5) =   2
                l(6) =   2
     Q(r) pseudized with 0 coefficients

     PseudoPot. # 2 for Ni read from file:
     /ddn/data/physics/eamoujaes/PSEUDO-CREATED/Ni.upf
     MD5 check sum: 85a2a5d9d38f4289a1cc30d5adb66a03
     Pseudo is Projector augmented-wave + core cor, Zval = 18.0
     Generated using ATOMPAW code
     Shape of augmentation charge: SINC**2
     Using radial grid of 2342 points,  6 beta functions with:
                l(1) =   0
                l(2) =   0
                l(3) =   1
                l(4) =   1
                l(5) =   2
                l(6) =   2
     Q(r) pseudized with 0 coefficients

     PseudoPot. # 3 for Te read from file:
     /ddn/data/physics/eamoujaes/PSEUDO-CREATED/Te.upf
     MD5 check sum: 8d958f193a7511a138982c2e72838810
     Pseudo is Projector augmented-wave + core cor, Zval =  6.0
     Generated using ATOMPAW code
     Shape of augmentation charge: SINC**2
     Using radial grid of 2342 points,  4 beta functions with:
                l(1) =   0
                l(2) =   0
                l(3) =   1
                l(4) =   1
     Q(r) pseudized with 0 coefficients

     atomic species   valence    mass     pseudopotential
     Ta               13.00   180.94790     Ta( 1.00)
     Ni               18.00    58.69340     Ni( 1.00)
     Te                6.00   127.60000     Te( 1.00)

      2 Sym. Ops. (no inversion) found ( 1 have fractional translation)

   Cartesian axes

     site n.     atom                  positions (alat units)
         1        Ta     tau(   1) = (   0.9483983   0.0563748   0.7667515  )
         2        Ta     tau(   2) = (   0.4049189   0.1691243   0.7758804  )
         3        Ta     tau(   3) = (   0.1395720   0.0563748   0.7667408  )
         4        Ta     tau(   4) = (   0.6830518   0.1691243   0.7758903  )
         5        Ni     tau(   5) = (   0.7926656   0.0563748   0.7247195  )
         6        Ni     tau(   6) = (   0.2491851   0.1691243   0.8179123  )
         7        Ni     tau(   7) = (   0.2952972   0.0563748   0.7247030  )
         8        Ni     tau(   8) = (   0.8387768   0.1691243   0.8179281  )
         9        Ni     tau(   9) = (   0.5439758   0.0563748   0.7620911  )
        10        Ni     tau(  10) = (   0.0004977   0.1691243   0.7805395  )
        11        Te     tau(  11) = (   0.8757644   0.1691243   0.6491504  )
        12        Te     tau(  12) = (   0.3322831   0.0563748   0.8934811  )
        13        Te     tau(  13) = (   0.6528583   0.0563748   0.6481693  )
        14        Te     tau(  14) = (   0.1093793   0.1691243   0.8944622  )
        15        Te     tau(  15) = (   0.2121896   0.1691243   0.6491367  )
        16        Te     tau(  16) = (   0.7556697   0.0563748   0.8934946  )
        17        Te     tau(  17) = (   0.4351154   0.0563748   0.6481593  )
        18        Te     tau(  18) = (   0.9785944   0.1691243   0.8944728  )
        19        Te     tau(  19) = (   0.0005114   0.0563748   0.6677811  )
        20        Te     tau(  20) = (   0.5439888   0.1691243   0.8748484  )

     number of k points=    12  Gaussian smearing, width (Ry)=  0.0020
                       cart. coord. in units 2pi/alat
        k(    1) = (   0.0000000   0.0000000   0.0000000), wk =   0.1000000
        k(    2) = (   0.0000000   0.4434608   0.0000000), wk =   0.2000000
        k(    3) = (   0.0000000   0.8869216   0.0000000), wk =   0.2000000
        k(    4) = (   0.0000000   1.3303824   0.0000000), wk =   0.2000000
        k(    5) = (   0.0000000   1.7738431   0.0000000), wk =   0.2000000
        k(    6) = (   0.0000000  -2.2173039   0.0000000), wk =   0.1000000
        k(    7) = (  -0.5000000   0.0000000   0.0000000), wk =   0.1000000
        k(    8) = (  -0.5000000   0.4434608   0.0000000), wk =   0.2000000
        k(    9) = (  -0.5000000   0.8869216   0.0000000), wk =   0.2000000
        k(   10) = (  -0.5000000   1.3303824   0.0000000), wk =   0.2000000
        k(   11) = (  -0.5000000   1.7738431   0.0000000), wk =   0.2000000
        k(   12) = (  -0.5000000  -2.2173039   0.0000000), wk =   0.1000000

     Initial potential from superposition of free atoms

     starting charge     219.9927, renormalised to     220.0000

     negative rho (up, down):  4.435E-02 0.000E+00
     Starting wfcs are  260 randomized atomic wfcs
     Checking if some PAW data can be deallocated...

     Self-consistent Calculation

     iteration #  1     ecut=    60.00 Ry     beta= 0.20
     Davidson diagonalization with overlap
     ethr =  1.00E-02,  avg # of iterations =  3.2

     negative rho (up, down):  4.589E-02 0.000E+00

     total energy              =   -9104.70656658 Ry
     estimated scf accuracy    <      10.98603279 Ry

[...]

     iteration #  9     ecut=    60.00 Ry     beta= 0.20
     Davidson diagonalization with overlap
     c_bands:  1 eigenvalues not converged
     c_bands:  1 eigenvalues not converged
     ethr =  8.41E-05,  avg # of iterations = 11.5

[...]

     End of self-consistent calculation

          k = 0.0000 0.0000 0.0000 ( 78943 PWs)   bands (ev):

  -104.7180-102.8629-102.8214-102.8030-102.6561-102.4831 -68.1692 -68.1511
   -67.9389 -67.8113 -65.4225 -65.2972 -64.9864 -63.4232 -63.4155 -63.3463
   -63.2895 -63.2639 -63.2604 -63.1924 -63.1620 -63.1189 -63.0501 -63.0430
   -62.9719 -62.9470 -62.9213 -62.7783 -35.8260 -34.7011 -34.6467 -34.6318
   -34.6247 -34.6023 -34.6001 -34.5859 -34.5238 -34.4941 -34.3824 -34.2128
   -16.5950 -14.5920 -12.3482 -12.1263 -11.7096 -11.5384 -11.3489 -11.2871
   -11.0472 -10.8423  -7.6078  -7.1043  -6.5367  -6.3023  -5.6921  -5.5129
    -5.2234  -4.9854  -4.9047  -4.5651  -4.3666  -4.3276  -4.2462  -3.8710
    -3.7701  -3.6650  -3.5161  -3.4109  -3.2371  -3.1655  -3.1225  -3.1161
    -3.0580  -2.9300  -2.7724  -2.6803  -2.6638  -2.4020  -2.3061  -2.2425
    -2.1748  -2.0360  -1.9413  -1.7717  -1.6739  -1.6130  -1.5729  -1.5440
    -1.5021  -1.3768  -1.2928  -1.2807  -1.1870  -1.0584  -1.0077  -0.9571
    -0.8323  -0.7854  -0.7293  -0.6875  -0.6595  -0.5038  -0.3978  -0.2607
    -0.1625  -0.0146   0.0194   0.1608   0.3818   0.3846   0.4397   0.6828
     1.0916   1.1980   1.4140   1.4227   1.5816   1.7484   2.0608   2.2118
     2.3327   2.3928   2.7656   2.8896   2.9258   3.3773   3.4793   3.6317
     3.7893   3.8839   4.0138   4.0400

[...]

          k =-0.5000 0.0000 0.0000 ( 78900 PWs)   bands (ev):

[...]

     the Fermi energy is     0.5447 ev

!    total energy              =   -9107.46949199 Ry
     total all-electron energy =     -9107.469492 Ry
     estimated scf accuracy    <          1.4E-09 Ry
     smearing contrib. (-TS)   =      -0.00033571 Ry
     internal energy E=F+TS    =   -9107.46915628 Ry

     The total energy is F=E-TS. E is the sum of the following terms:
     one-electron contribution =  -17715.97553433 Ry
     hartree contribution      =    8719.17911315 Ry
     xc contribution           =    -367.51100618 Ry
     ewald contribution        =    6524.73484585 Ry
     one-center paw contrib.   =   -6267.89657477 Ry

     convergence has been achieved in  30 iterations

[...]

     Forces acting on atoms (cartesian axes, Ry/au):

     atom    1 type  1   force =    -1.38050019    0.00000000    1.93181558
     atom    2 type  1   force =    -0.00008120    0.00000000   -0.00348296
     atom    3 type  1   force =     0.03406113    0.00000000   -0.01360992
     atom    4 type  1   force =    -0.00237694    0.00000000   -0.00154246
     atom    5 type  2   force =    -0.01417199    0.00000000   -0.00828843
     atom    6 type  2   force =     0.01146908    0.00000000   -0.01526877
     atom    7 type  2   force =     0.00532032    0.00000000   -0.00273153
     atom    8 type  2   force =    -0.03514500    0.00000000   -0.00545386
     atom    9 type  2   force =    -0.00076623    0.00000000    0.00305958
     atom   10 type  2   force =     0.42261393    0.00000000   -0.62569067
     atom   11 type  3   force =    -0.21342577    0.00000000   -0.05887382
     atom   12 type  3   force =    -0.00515925    0.00000000    0.00353611
     atom   13 type  3   force =     0.00250592    0.00000000   -0.00110283
     atom   14 type  3   force =     0.84701320    0.00000000    0.09970073
     atom   15 type  3   force =    -0.00913599    0.00000000    0.00046129
     atom   16 type  3   force =     0.00748352    0.00000000    0.00275517
     atom   17 type  3   force =    -0.00090201    0.00000000   -0.00004293
     atom   18 type  3   force =    -0.93444420    0.00000000    0.84047852
     atom   19 type  3   force =     1.26546314    0.00000000   -2.14746984
     atom   20 type  3   force =     0.00017850    0.00000000    0.00175104

     Total force =     3.844515     Total SCF correction =     0.000120

     Computing stress (Cartesian axis) and pressure

     negative rho (up, down):  6.883E-02 0.000E+00
          total   stress  (Ry/bohr**3)                   (kbar)     P=       97.67
   0.00067342   0.00000000  -0.00032135           99.06        0.00      -47.27
   0.00000000   0.00034836   0.00000000            0.00       51.25        0.00
  -0.00032135   0.00000000   0.00097012          -47.27        0.00      142.71

     BFGS Geometry Optimization
     Energy error            =      0.0E+00 Ry
     Gradient error          =      2.1E+00 Ry/Bohr

     number of scf cycles    =   1
     number of bfgs steps    =   0

     energy             new  =   -9107.4694919910 Ry

     new trust radius        =       0.5000000000 bohr
     new conv_thr            =       0.0000000100 Ry

ATOMIC_POSITIONS (angstrom)
Ta              15.2453008547        0.9149235643       12.6489022849
Ta               6.5715418942        2.7447696811       12.5916266182
Ta               2.2687712001        0.9149235643       12.4422212690
Ta              11.0852010350        2.7447696811       12.5919927559
Ni              12.8629038032        0.9149235643       11.7608097792
Ni               4.0453175679        2.7447696811       13.2725231730
Ni               4.7930314755        0.9149235643       11.7611330063
Ni              13.6090299754        2.7447696811       13.2738220823
Ni               8.8282653311        0.9149235643       12.3685303706
Ni               0.0529373335        2.7447696811       12.6011928029
Te              14.1903872489        2.7447696811       10.5290073001
Te               5.3921742006        0.9149235643       14.5009474633
Te              10.5956991213        0.9149235643       10.5192168105
Te               1.8650604596        2.7447696811       14.5270781798
Te               3.4427189079        2.7447696811       10.5350825075
Te              12.2647839116        0.9149235643       14.5010850095
Te               7.0615226739        0.9149235643       10.5191667149
Te              15.7827107384        2.7447696811       14.6058838474
Te               0.1426277218        0.9149235643       10.6096653333
Te               8.8285769087        2.7447696811       14.1983636913

     Writing config-only to output data dir /ddn/data/physics/eamoujaes/2D-Ta2Ni3Te5/ELASTIC/OUT/ta2ni3te5.save/ :
     XML data file
     NEW-OLD atomic charge density approx. for the potential

[...]

     Energy error            =      1.5E+00 Ry
     Gradient error          =      4.7E-01 Ry/Bohr

[...]

     energy             old  =   -9107.4694919910 Ry
     energy             new  =   -9108.9809997962 Ry

     CASE: energy            _new < energy            _old

[...]

     iteration #  3     ecut=    60.00 Ry     beta= 0.20
     Davidson diagonalization with overlap
     c_bands:  1 eigenvalues not converged
     ethr =  1.23E-07,  avg # of iterations =  3.5

[...]

     Threshold (ethr) on eigenvalues was too large:
     Diagonalizing with lowered threshold

     Davidson diagonalization with overlap
     ethr =  3.32E-08,  avg # of iterations =  4.0

[...]

     number of scf cycles    =  41
     number of bfgs steps    =  40

     energy             old  =   -9109.7413263802 Ry
     energy             new  =   -9109.7413393673 Ry

     CASE: energy            _new < energy            _old

     new trust radius        =       0.0033847994 bohr
     new conv_thr            =            1.0E-10 Ry

ATOMIC_POSITIONS (angstrom)
Ta              14.8598687528        0.9149235643       12.6027212483
Ta               6.7430662266        2.7447696811       12.4310787466
Ta               2.6603721028        0.9149235643       12.5751290010
Ta              10.7750189069        2.7447696811       12.4626458232
Ni              12.5195824583        0.9149235643       11.7452269368
Ni               4.4051566887        2.7447696811       13.2923127289
Ni               4.9976084235        0.9149235643       11.7039904948
Ni              13.1127286267        2.7447696811       13.3327052510
Ni               8.7553537933        0.9149235643       12.3364880638
Ni               0.6415714099        2.7447696811       12.6972375946
Te              13.7895081407        2.7447696811       10.5624818281
Te               5.6768900687        0.9149235643       14.4735817160
Te              10.4061188134        0.9149235643       10.3555111559
Te               2.2938336301        2.7447696811       14.6821226592
Te               3.7172561761        2.7447696811       10.5283550011
Te              11.8316985074        0.9149235643       14.5095545396
Te               7.1215199502        0.9149235643       10.3269107297
Te              15.2379336527        2.7447696811       14.7066889368
Te               0.6359619483        0.9149235643       10.7510341182
Te               8.7475140860        2.7447696811       14.2824744264

     Writing config-only to output data dir /ddn/data/physics/eamoujaes/2D-Ta2Ni3Te5/ELASTIC/OUT/ta2ni3te5.save/ :
     XML data file
     NEW-OLD atomic charge density approx. for the potential

[...]

     Self-consistent Calculation

[...]

     Threshold (ethr) on eigenvalues was too large:
     Diagonalizing with lowered threshold

     Davidson diagonalization with overlap
     ethr =  4.31E-09,  avg # of iterations =  5.0

[...]

     total energy              =   -9109.74134655 Ry
     estimated scf accuracy    <          1.1E-10 Ry

     iteration # 18     ecut=    60.00 Ry     beta= 0.20
     Davidson diagonalization with overlap
     ethr =  1.00E-13,  avg # of iterations =  1.0

[...]

     End of self-consistent calculation

[...]

          k = 0.0000-2.2173 0.0000 ( 78550 PWs)   bands (ev):

[...]

          k =-0.5000-2.2173 0.0000 ( 78444 PWs)   bands (ev):

  -103.1482-103.1467-103.1356-103.1324-102.7481-102.7471 -68.0824 -68.0817
   -68.0805 -68.0795 -63.6998 -63.6983 -63.6876 -63.6847 -63.5413 -63.5398
   -63.5321 -63.5287 -63.4454 -63.4433 -63.4341 -63.4310 -63.2040 -63.2037
   -63.1928 -63.1923 -63.0959 -63.0933 -34.6196 -34.6192 -34.6152 -34.6143
   -34.6085 -34.6079 -34.6057 -34.6049 -34.5465 -34.5457 -34.5362 -34.5354
   -11.3256 -11.3246 -11.0357 -11.0350 -10.9974 -10.9954 -10.9312 -10.9306
   -10.6181 -10.6180  -6.1279  -6.1271  -5.7160  -5.7142  -5.2576  -5.2575
    -4.8747  -4.8744  -4.6656  -4.6647  -3.9610  -3.9597  -3.9497  -3.9478
    -3.4750  -3.4750  -3.4112  -3.4103  -3.4054  -3.4045  -3.2275  -3.2264
    -2.9874  -2.9860  -2.9236  -2.9222  -2.6610  -2.6609  -2.6252  -2.6242
    -2.1854  -2.1846  -2.1800  -2.1790  -1.9969  -1.9958  -1.9507  -1.9503
    -1.9295  -1.9280  -1.6426  -1.6419  -1.6141  -1.6131  -1.4342  -1.4333
    -1.4319  -1.4300  -1.1901  -1.1897  -0.9932  -0.9913  -0.9838  -0.9838
    -0.8950  -0.8930  -0.5392  -0.5391  -0.3185  -0.3174   0.5792   0.5803
     1.0530   1.0537   1.7862   1.7880   2.0330   2.0341   2.4313   2.4334
     2.5664   2.5686   2.7351   2.7355   3.0608   3.0610   3.2984   3.2994
     3.3413   3.3431   3.8095   3.8176

     the Fermi energy is     0.4093 ev

!    total energy              =   -9109.74134655 Ry
     total all-electron energy =     -9109.741347 Ry
     estimated scf accuracy    <          1.7E-11 Ry
     smearing contrib. (-TS)   =      -0.00018981 Ry
     internal energy E=F+TS    =   -9109.74115674 Ry

     The total energy is F=E-TS. E is the sum of the following terms:
     one-electron contribution =  -17383.65198248 Ry
     hartree contribution      =    8553.39519164 Ry
     xc contribution           =    -365.52878098 Ry
     ewald contribution        =    6353.84542263 Ry
     one-center paw contrib.   =   -6267.80100754 Ry

     convergence has been achieved in  18 iterations

     negative rho (up, down):  6.436E-02 0.000E+00

     Forces acting on atoms (cartesian axes, Ry/au):

     atom    1 type  1   force =    -0.00025999    0.00000000   -0.00026164
     atom    2 type  1   force =     0.00024761    0.00000000    0.00015099
     atom    3 type  1   force =    -0.00009448    0.00000000    0.00014513
     atom    4 type  1   force =     0.00012303    0.00000000   -0.00031811
     atom    5 type  2   force =    -0.00011275    0.00000000    0.00002028
     atom    6 type  2   force =     0.00013730    0.00000000   -0.00006996
     atom    7 type  2   force =    -0.00003763    0.00000000    0.00003081
     atom    8 type  2   force =     0.00000356    0.00000000   -0.00000222
     atom    9 type  2   force =    -0.00015245    0.00000000    0.00025427
     atom   10 type  2   force =     0.00022812    0.00000000    0.00004913
     atom   11 type  3   force =     0.00039812    0.00000000   -0.00014773
     atom   12 type  3   force =     0.00002620    0.00000000    0.00009721
     atom   13 type  3   force =     0.00004647    0.00000000   -0.00070455
     atom   14 type  3   force =    -0.00064658    0.00000000    0.00058551
     atom   15 type  3   force =     0.00001011    0.00000000   -0.00025607
     atom   16 type  3   force =     0.00004072    0.00000000    0.00001364
     atom   17 type  3   force =     0.00015596    0.00000000    0.00024621
     atom   18 type  3   force =     0.00004711    0.00000000   -0.00008834
     atom   19 type  3   force =    -0.00035579    0.00000000   -0.00020526
     atom   20 type  3   force =     0.00019539    0.00000000    0.00046070

     Total force =     0.001606     Total SCF correction =     0.000035

     Computing stress (Cartesian axis) and pressure

     negative rho (up, down):  6.436E-02 0.000E+00
          total   stress  (Ry/bohr**3)                   (kbar)     P=       13.12
   0.00025274   0.00000000  -0.00000023           37.18        0.00       -0.03
   0.00000000   0.00005617   0.00000000            0.00        8.26        0.00
  -0.00000023   0.00000000  -0.00004134           -0.03        0.00       -6.08

     Energy error            =      7.2E-06 Ry
     Gradient error          =      7.0E-04 Ry/Bohr

     bfgs converged in  42 scf cycles and  41 bfgs steps
     (criteria: energy <  1.0E-04 Ry, force <  1.0E-03 Ry/Bohr)

     End of BFGS Geometry Optimization

     Final energy             =   -9109.7413465478 Ry

     File /ddn/data/physics/eamoujaes/2D-Ta2Ni3Te5/ELASTIC/OUT/ta2ni3te5.bfgs deleted, as requested
Begin final coordinates

ATOMIC_POSITIONS (angstrom)
Ta              14.8598687528        0.9149235643       12.6027212483
Ta               6.7430662266        2.7447696811       12.4310787466
Ta               2.6603721028        0.9149235643       12.5751290010
Ta              10.7750189069        2.7447696811       12.4626458232
Ni              12.5195824583        0.9149235643       11.7452269368
Ni               4.4051566887        2.7447696811       13.2923127289
Ni               4.9976084235        0.9149235643       11.7039904948
Ni              13.1127286267        2.7447696811       13.3327052510
Ni               8.7553537933        0.9149235643       12.3364880638
Ni               0.6415714099        2.7447696811       12.6972375946
Te              13.7895081407        2.7447696811       10.5624818281
Te               5.6768900687        0.9149235643       14.4735817160
Te              10.4061188134        0.9149235643       10.3555111559
Te               2.2938336301        2.7447696811       14.6821226592
Te               3.7172561761        2.7447696811       10.5283550011
Te              11.8316985074        0.9149235643       14.5095545396
Te               7.1215199502        0.9149235643       10.3269107297
Te              15.2379336527        2.7447696811       14.7066889368
Te               0.6359619483        0.9149235643       10.7510341182
Te               8.7475140860        2.7447696811       14.2824744264
End final coordinates

     Writing all to output data dir /ddn/data/physics/eamoujaes/2D-Ta2Ni3Te5/ELASTIC/OUT/ta2ni3te5.save/ :
     XML data file, charge density, pseudopotentials, collected wavefunctions

     General routines
                                        4.31s GPU  (   12461 calls)
                                        0.11s GPU  (     929 calls)
                                      922.97s GPU  (  569798 calls)

     Parallel routines

   This run was terminated on:   3:42: 5  28Jul2024

   JOB DONE.