     Program PWSCF v.7.3 starts on 28Jul2024 at  3:42:19

     Waiting for input...
     Reading input from standard input
Warning: card &CELL ignored
Warning: card CELL_DYNAMICS='BFGS' ignored
Warning: card PRESS=0.0 ignored
Warning: card CELL_DOFREE='2DXY' ignored
Warning: card / ignored

     Current dimensions of program PWSCF are:
     Max number of different atomic species (ntypx) = 10
     Max number of k-points (npk) =  40000
     Max angular momentum in pseudopotentials (lmaxx) =  4
read_pp_mesh; mismatch in mesh size, discarding the one in header
read_pp_mesh; mismatch in mesh size, discarding the one in header
read_pp_mesh; mismatch in mesh size, discarding the one in header
     Message from routine setup:
     using ibrav=0 with symmetry is DISCOURAGED, use correct ibrav instead

     Subspace diagonalization in iterative solution of the eigenvalue problem:
     a serial algorithm will be used

     Using Slab Decomposition

     bravais-lattice index     =            0
     lattice parameter (alat)  =      31.5246  a.u.
     unit-cell volume          =   10314.5405 (a.u.)^3
     number of atoms/cell      =           20
     number of atomic types    =            3
     number of electrons       =       220.00
     number of Kohn-Sham states=          132
     kinetic-energy cutoff     =      60.0000  Ry
     charge density cutoff     =     480.0000  Ry
     scf convergence threshold =      1.0E-08
     mixing beta               =       0.2000
     number of iterations used =            8  plain     mixing
     energy convergence thresh.=      1.0E-04
     force convergence thresh. =      1.0E-03
     Exchange-correlation= SLA PW PBX PBC
                           (   1   4   3   4   0   0   0)
     nstep                     =         2000

     celldm(1)=  31.524600  celldm(2)=   0.000000  celldm(3)=   0.000000
     celldm(4)=   0.000000  celldm(5)=   0.000000  celldm(6)=   0.000000

     crystal axes: (cart. coord. in units of alat)
               a(1) = (   1.000000   0.000000   0.000000 )
               a(2) = (   0.000000   0.219378   0.000000 )
               a(3) = (   0.000000   0.000000   1.500746 )

     reciprocal axes: (cart. coord. in units 2 pi/alat)
               b(1) = (  1.000000  0.000000  0.000000 )
               b(2) = (  0.000000  4.558334  0.000000 )
               b(3) = (  0.000000  0.000000  0.666335 )

     PseudoPot. # 1 for Ta read from file:
     /ddn/data/physics/eamoujaes/PSEUDO-CREATED/Ta.upf
     MD5 check sum: d865b2c2c09566b116f2b8decb2c153d
     Pseudo is Projector augmented-wave + core cor, Zval = 13.0
     Generated using ATOMPAW code
     Shape of augmentation charge: SINC**2
     Using radial grid of 2342 points,  6 beta functions with:
                l(1) =   0
                l(2) =   0
                l(3) =   1
                l(4) =   1
                l(5) =   2
                l(6) =   2
     Q(r) pseudized with 0 coefficients

     PseudoPot. # 2 for Ni read from file:
     /ddn/data/physics/eamoujaes/PSEUDO-CREATED/Ni.upf
     MD5 check sum: 85a2a5d9d38f4289a1cc30d5adb66a03
     Pseudo is Projector augmented-wave + core cor, Zval = 18.0
     Generated using ATOMPAW code
     Shape of augmentation charge: SINC**2
     Using radial grid of 2342 points,  6 beta functions with:
                l(1) =   0
                l(2) =   0
                l(3) =   1
                l(4) =   1
                l(5) =   2
                l(6) =   2
     Q(r) pseudized with 0 coefficients

     PseudoPot. # 3 for Te read from file:
     /ddn/data/physics/eamoujaes/PSEUDO-CREATED/Te.upf
     MD5 check sum: 8d958f193a7511a138982c2e72838810
     Pseudo is Projector augmented-wave + core cor, Zval =  6.0
     Generated using ATOMPAW code
     Shape of augmentation charge: SINC**2
     Using radial grid of 2342 points,  4 beta functions with:
                l(1) =   0
                l(2) =   0
                l(3) =   1
                l(4) =   1
     Q(r) pseudized with 0 coefficients

     atomic species   valence    mass     pseudopotential
     Ta               13.00   180.94790     Ta( 1.00)
     Ni               18.00    58.69340     Ni( 1.00)
     Te                6.00   127.60000     Te( 1.00)

      2 Sym. Ops. (no inversion) found ( 1 have fractional translation)

   Cartesian axes

     site n.     atom                  positions (alat units)
         1        Ta     tau(   1) = (   0.9226561   0.0548446   0.7459397  )
         2        Ta     tau(   2) = (   0.3939283   0.1645338   0.7548208  )
         3        Ta     tau(   3) = (   0.1357836   0.0548446   0.7459292  )
         4        Ta     tau(   4) = (   0.6645119   0.1645338   0.7548304  )
         5        Ni     tau(   5) = (   0.7711504   0.0548446   0.7050485  )
         6        Ni     tau(   6) = (   0.2424215   0.1645338   0.7957118  )
         7        Ni     tau(   7) = (   0.2872820   0.0548446   0.7050325  )
         8        Ni     tau(   8) = (   0.8160100   0.1645338   0.7957272  )
         9        Ni     tau(   9) = (   0.5292108   0.0548446   0.7414058  )
        10        Ni     tau(  10) = (   0.0004842   0.1645338   0.7593534  )
        11        Te     tau(  11) = (   0.8519936   0.1645338   0.6315306  )
        12        Te     tau(  12) = (   0.3232640   0.0548446   0.8692294  )
        13        Te     tau(  13) = (   0.6351378   0.0548446   0.6305761  )
        14        Te     tau(  14) = (   0.1064105   0.1645338   0.8701839  )
        15        Te     tau(  15) = (   0.2064302   0.1645338   0.6315172  )
        16        Te     tau(  16) = (   0.7351586   0.0548446   0.8692426  )
        17        Te     tau(  17) = (   0.4233051   0.0548446   0.6305664  )
        18        Te     tau(  18) = (   0.9520325   0.1645338   0.8701942  )
        19        Te     tau(  19) = (   0.0004975   0.0548446   0.6496556  )
        20        Te     tau(  20) = (   0.5292234   0.1645338   0.8511025  )

     number of k points=    12  Gaussian smearing, width (Ry)=  0.0020
                       cart. coord. in units 2pi/alat
        k(    1) = (   0.0000000   0.0000000   0.0000000), wk =   0.1000000
        k(    2) = (   0.0000000   0.4558334   0.0000000), wk =   0.2000000
        k(    3) = (   0.0000000   0.9116668   0.0000000), wk =   0.2000000
        k(    4) = (   0.0000000   1.3675002   0.0000000), wk =   0.2000000
        k(    5) = (   0.0000000   1.8233337   0.0000000), wk =   0.2000000
        k(    6) = (   0.0000000  -2.2791671   0.0000000), wk =   0.1000000
        k(    7) = (  -0.5000000   0.0000000   0.0000000), wk =   0.1000000
        k(    8) = (  -0.5000000   0.4558334   0.0000000), wk =   0.2000000
        k(    9) = (  -0.5000000   0.9116668   0.0000000), wk =   0.2000000
        k(   10) = (  -0.5000000   1.3675002   0.0000000), wk =   0.2000000
        k(   11) = (  -0.5000000   1.8233337   0.0000000), wk =   0.2000000
        k(   12) = (  -0.5000000  -2.2791671   0.0000000), wk =   0.1000000

     Initial potential from superposition of free atoms

     starting charge     219.9927, renormalised to     220.0000

     negative rho (up, down):  4.813E-02 0.000E+00
     Starting wfcs are  260 randomized atomic wfcs
     Checking if some PAW data can be deallocated...

     Self-consistent Calculation

     iteration #  1     ecut=    60.00 Ry     beta= 0.20
     Davidson diagonalization with overlap
     ethr =  1.00E-02,  avg # of iterations =  2.9

     negative rho (up, down):  4.893E-02 0.000E+00

     total energy              =   -9106.84085870 Ry
     estimated scf accuracy    <       8.89205196 Ry

[...]

     iteration # 11     ecut=    60.00 Ry     beta= 0.20
     Davidson diagonalization with overlap
     c_bands:  1 eigenvalues not converged
     c_bands:  1 eigenvalues not converged
     c_bands:  1 eigenvalues not converged
     c_bands:  1 eigenvalues not converged
     ethr =  1.22E-05,  avg # of iterations = 16.1

[...]

     End of self-consistent calculation

          k = 0.0000 0.0000 0.0000 ( 81157 PWs)   bands (ev):

  -103.8451-103.1006-103.0844-102.9525-102.7712-102.6778 -68.3952 -68.3128
   -68.2537 -67.5619 -64.3701 -64.3153 -64.2503 -63.6718 -63.6445 -63.5318
   -63.5309 -63.4586 -63.3905 -63.3560 -63.3460 -63.3436 -63.2333 -63.1756
   -63.1552 -63.1438 -63.0604 -62.9598 -34.8760 -34.8740 -34.8466 -34.8248
   -34.7945 -34.7733 -34.7533 -34.7469 -34.7322 -34.7059 -34.2171 -34.2076
   -14.3396 -13.2960 -12.5264 -12.2751 -11.8570 -11.6715 -11.5456 -11.4666
   -11.3235 -11.1767  -6.8819  -6.3369  -5.7279  -5.6752  -5.4966  -5.2781
    -5.1367  -4.9550  -4.8314  -4.5290  -4.1850  -4.1651  -3.8672  -3.7363
    -3.7330  -3.5886  -3.4436  -3.4227  -3.3534  -3.1457  -3.1364  -3.0190
    -2.8486  -2.6877  -2.6720  -2.5805  -2.5521  -2.5406  -2.3654  -2.2006
    -2.1677  -2.0857  -2.0131  -1.8779  -1.7820  -1.7547  -1.6979  -1.5915
    -1.5681  -1.4991  -1.4613  -1.3511  -1.2446  -1.1423  -1.0396  -0.9866
    -0.9566  -0.9176  -0.8549  -0.8083  -0.6966  -0.5521  -0.5133  -0.4462
    -0.3400  -0.1901  -0.1338   0.0218   0.2123   0.2227   0.3017   0.6310
     0.9641   1.0822   1.2274   1.3138   1.5177   1.6925   1.9423   1.9428
     2.2258   2.2894   2.5354   2.8372   3.1511   3.2126   3.2502   3.5006
     3.5812   3.5880   3.7725   3.7963

[...]

          k =-0.5000 0.0000 0.0000 ( 81086 PWs)   bands (ev):

[...]

     the Fermi energy is     0.2984 ev

!    total energy              =   -9109.02674789 Ry
     total all-electron energy =     -9109.026748 Ry
     estimated scf accuracy    <          5.0E-09 Ry
     smearing contrib. (-TS)   =      -0.00025436 Ry
     internal energy E=F+TS    =   -9109.02649353 Ry

     The total energy is F=E-TS. E is the sum of the following terms:
     one-electron contribution =  -17229.88672194 Ry
     hartree contribution      =    8475.64059136 Ry
     xc contribution           =    -366.29813728 Ry
     ewald contribution        =    6279.32596402 Ry
     one-center paw contrib.   =   -6267.80818969 Ry

     convergence has been achieved in  29 iterations

[...]

     Forces acting on atoms (cartesian axes, Ry/au):

     atom    1 type  1   force =    -0.70168328    0.00000000    0.64058721
     atom    2 type  1   force =     0.00666756    0.00000000   -0.00089173
     atom    3 type  1   force =     0.03014311    0.00000000    0.01593899
     atom    4 type  1   force =     0.00511845    0.00000000   -0.00577638
     atom    5 type  2   force =    -0.01544841    0.00000000   -0.00827374
     atom    6 type  2   force =     0.00754073    0.00000000   -0.00977280
     atom    7 type  2   force =     0.00140893    0.00000000   -0.00240033
     atom    8 type  2   force =    -0.03555092    0.00000000    0.00718271
     atom    9 type  2   force =    -0.00346631    0.00000000    0.00099753
     atom   10 type  2   force =     0.36533471    0.00000000   -0.32142476
     atom   11 type  3   force =    -0.08981447    0.00000000   -0.02310218
     atom   12 type  3   force =    -0.00484956    0.00000000    0.00137865
     atom   13 type  3   force =     0.00073622    0.00000000    0.00005327
     atom   14 type  3   force =     0.18334862    0.00000000    0.01807157
     atom   15 type  3   force =    -0.00422121    0.00000000    0.00060142
     atom   16 type  3   force =     0.00497542    0.00000000    0.00404069
     atom   17 type  3   force =     0.00047229    0.00000000    0.00008075
     atom   18 type  3   force =    -0.35630386    0.00000000    0.41882662
     atom   19 type  3   force =     0.60909527    0.00000000   -0.73692569
     atom   20 type  3   force =    -0.00350329    0.00000000    0.00080820

     Total force =     1.549718     Total SCF correction =     0.000332

     Computing stress (Cartesian axis) and pressure

     negative rho (up, down):  6.635E-02 0.000E+00
          total   stress  (Ry/bohr**3)                   (kbar)     P=       40.53
   0.00035412   0.00000000  -0.00020071           52.09        0.00      -29.53
   0.00000000   0.00013300   0.00000000            0.00       19.57        0.00
  -0.00020071   0.00000000   0.00033943          -29.53        0.00       49.93

     BFGS Geometry Optimization
     Energy error            =      0.0E+00 Ry
     Gradient error          =      7.4E-01 Ry/Bohr

     number of scf cycles    =   1
     number of bfgs steps    =   0

     energy             new  =   -9109.0267478877 Ry

     new trust radius        =       0.5000000000 bohr
     new conv_thr            =       0.0000000100 Ry

ATOMIC_POSITIONS (angstrom)
Ta              15.1976513280        0.9149235643       12.6211215125
Ta               6.5733957471        2.7447696811       12.5917495484
Ta               2.2734976625        0.9149235643       12.4480770454
Ta              11.0868698690        2.7447696811       12.5905578845
Ni              12.8601328401        0.9149235643       11.7593998531
Ni               4.0461870097        2.7447696811       13.2714393477
Ni               4.7928566412        0.9149235643       11.7607586709
Ni              13.6029219642        2.7447696811       13.2763888105
Ni               8.8273873709        0.9149235643       12.3684816627
Ni               0.1091825820        2.7447696811       12.5786561265
Te              14.1881863920        2.7447696811       10.5288632680
Te               5.3913797491        0.9149235643       14.5009536452
Te              10.5956368642        0.9149235643       10.5193486171
Te               1.8258914636        2.7447696811       14.5214962282
Te               3.4425204793        2.7447696811       10.5351999829
Te              12.2653664749        0.9149235643       14.5019108006
Te               7.0617491272        0.9149235643       10.5191936202
Te              15.7832954971        2.7447696811       14.6325765895
Te               0.1768648682        0.9149235643       10.6336762983
Te               8.8275884329        2.7447696811       14.1984014876

     Writing config-only to output data dir /ddn/data/physics/eamoujaes/2D-Ta2Ni3Te5/ELASTIC/OUT/ta2ni3te5.save/ :
     XML data file
     NEW-OLD atomic charge density approx. for the potential

[...]

     Energy error            =      6.0E-01 Ry
     Gradient error          =      1.5E-01 Ry/Bohr

[...]

     energy             old  =   -9109.0267478877 Ry
     energy             new  =   -9109.6259822760 Ry

     CASE: energy            _new < energy            _old

[...]

     iteration #  2     ecut=    60.00 Ry     beta= 0.20
     Davidson diagonalization with overlap
     c_bands:  1 eigenvalues not converged
     ethr =  3.80E-06,  avg # of iterations =  9.3

[...]

     Threshold (ethr) on eigenvalues was too large:
     Diagonalizing with lowered threshold

     Davidson diagonalization with overlap
     ethr =  6.07E-08,  avg # of iterations =  4.1

[...]

     number of scf cycles    =  23
     number of bfgs steps    =  22

     energy             old  =   -9109.8119095796 Ry
     energy             new  =   -9109.8119261679 Ry

     CASE: energy            _new < energy            _old

     new trust radius        =       0.0052586119 bohr
     new conv_thr            =            1.0E-10 Ry

ATOMIC_POSITIONS (angstrom)
Ta              15.0292890623        0.9149235643       12.5195220247
Ta               6.6899660650        2.7447696811       12.5152983659
Ta               2.5345368822        0.9149235643       12.4832714463
Ta              10.8762645820        2.7447696811       12.5530223023
Ni              12.6179901812        0.9149235643       11.7704673609
Ni               4.2804299919        2.7447696811       13.2650234973
Ni               4.9427558320        0.9149235643       11.7149292393
Ni              13.2834947729        2.7447696811       13.3202785984
Ni               8.7793537366        0.9149235643       12.4020509860
Ni               0.4373854628        2.7447696811       12.6370788411
Te              13.8985158249        2.7447696811       10.5484269936
Te               5.5630092069        0.9149235643       14.4868613686
Te              10.4495008665        0.9149235643       10.4570058415
Te               2.1113243653        2.7447696811       14.5787633567
Te               3.6476020342        2.7447696811       10.5001957889
Te              11.9914743106        0.9149235643       14.5351638349
Te               7.1297677403        0.9149235643       10.4258191093
Te              15.4677105305        2.7447696811       14.6085621059
Te               0.4265420579        0.9149235643       10.7373567504
Te               8.7716488574        2.7447696811       14.2991531877

     Writing config-only to output data dir /ddn/data/physics/eamoujaes/2D-Ta2Ni3Te5/ELASTIC/OUT/ta2ni3te5.save/ :
     XML data file
     NEW-OLD atomic charge density approx. for the potential

[...]

     Self-consistent Calculation

[...]

     Threshold (ethr) on eigenvalues was too large:
     Diagonalizing with lowered threshold

     Davidson diagonalization with overlap
     ethr =  4.82E-09,  avg # of iterations =  5.0

[...]

     total energy              =   -9109.81194121 Ry
     estimated scf accuracy    <          2.5E-10 Ry

     iteration # 17     ecut=    60.00 Ry     beta= 0.20
     Davidson diagonalization with overlap
     ethr =  1.13E-13,  avg # of iterations =  2.7

[...]

     End of self-consistent calculation

[...]

          k = 0.0000-2.2792 0.0000 ( 80706 PWs)   bands (ev):

[...]

          k =-0.5000-2.2792 0.0000 ( 80704 PWs)   bands (ev):

  -103.2209-103.2199-103.2022-103.1995-102.8097-102.8097 -68.2825 -68.2812
   -68.2801 -68.2789 -63.7877 -63.7872 -63.7698 -63.7669 -63.6054 -63.6037
   -63.5911 -63.5888 -63.5082 -63.5067 -63.4927 -63.4899 -63.2911 -63.2902
   -63.2643 -63.2641 -63.1206 -63.1196 -34.8070 -34.8062 -34.8041 -34.8030
   -34.8010 -34.7998 -34.7985 -34.7971 -34.7259 -34.7248 -34.7186 -34.7176
   -11.4288 -11.4261 -11.1129 -11.1123 -11.0867 -11.0846 -11.0132 -11.0122
   -10.7685 -10.7640  -6.1757  -6.1754  -5.8403  -5.8389  -5.3097  -5.3074
    -4.9335  -4.9330  -4.7338  -4.7304  -4.0373  -4.0339  -3.9829  -3.9819
    -3.5690  -3.5683  -3.5015  -3.5010  -3.4598  -3.4593  -3.2928  -3.2926
    -3.1199  -3.1184  -3.0567  -3.0555  -2.7230  -2.7229  -2.7159  -2.7129
    -2.3588  -2.3587  -2.2616  -2.2595  -2.0935  -2.0933  -2.0668  -2.0667
    -1.9891  -1.9877  -1.7554  -1.7543  -1.6931  -1.6917  -1.5327  -1.5298
    -1.4416  -1.4416  -1.2348  -1.2330  -1.1108  -1.1086  -1.0366  -1.0353
    -0.9671  -0.9641  -0.6953  -0.6927  -0.4803  -0.4798   0.5175   0.5189
     1.1067   1.1076   1.6443   1.6444   1.7152   1.7160   2.2481   2.2482
     2.4258   2.4282   2.5847   2.5848   2.8135   2.8145   3.0776   3.0779
     3.2234   3.2237   3.7810   3.7849

     the Fermi energy is     0.2460 ev

!    total energy              =   -9109.81194121 Ry
     total all-electron energy =     -9109.811941 Ry
     estimated scf accuracy    <          9.7E-11 Ry
     smearing contrib. (-TS)   =      -0.00001790 Ry
     internal energy E=F+TS    =   -9109.81192331 Ry

     The total energy is F=E-TS. E is the sum of the following terms:
     one-electron contribution =  -17064.93496594 Ry
     hartree contribution      =    8393.08909674 Ry
     xc contribution           =    -365.34303383 Ry
     ewald contribution        =    6195.15664372 Ry
     one-center paw contrib.   =   -6267.77966401 Ry

     convergence has been achieved in  17 iterations

     negative rho (up, down):  6.495E-02 0.000E+00

     Forces acting on atoms (cartesian axes, Ry/au):

     atom    1 type  1   force =    -0.00030892    0.00000000   -0.00001860
     atom    2 type  1   force =     0.00026685    0.00000000    0.00000779
     atom    3 type  1   force =     0.00009037    0.00000000    0.00028866
     atom    4 type  1   force =    -0.00015944    0.00000000   -0.00092342
     atom    5 type  2   force =     0.00083745    0.00000000    0.00021093
     atom    6 type  2   force =    -0.00012204    0.00000000   -0.00008360
     atom    7 type  2   force =    -0.00037418    0.00000000    0.00027726
     atom    8 type  2   force =    -0.00031638    0.00000000   -0.00070968
     atom    9 type  2   force =    -0.00025282    0.00000000   -0.00053080
     atom   10 type  2   force =    -0.00007832    0.00000000   -0.00023107
     atom   11 type  3   force =     0.00078696    0.00000000   -0.00019627
     atom   12 type  3   force =     0.00014657    0.00000000    0.00011518
     atom   13 type  3   force =     0.00008653    0.00000000   -0.00025976
     atom   14 type  3   force =    -0.00024276    0.00000000    0.00053086
     atom   15 type  3   force =     0.00000491    0.00000000    0.00049558
     atom   16 type  3   force =    -0.00047504    0.00000000   -0.00006804
     atom   17 type  3   force =    -0.00018175    0.00000000    0.00011539
     atom   18 type  3   force =     0.00074048    0.00000000    0.00068065
     atom   19 type  3   force =     0.00031631    0.00000000    0.00058528
     atom   20 type  3   force =    -0.00076477    0.00000000   -0.00028636

     Total force =     0.002623     Total SCF correction =     0.000050

     Computing stress (Cartesian axis) and pressure

     negative rho (up, down):  6.495E-02 0.000E+00
          total   stress  (Ry/bohr**3)                   (kbar)     P=        7.86
   0.00016947   0.00000000  -0.00000065           24.93        0.00       -0.10
   0.00000000   0.00003191   0.00000000            0.00        4.69        0.00
  -0.00000065   0.00000000  -0.00004104           -0.10        0.00       -6.04

     Energy error            =      1.5E-05 Ry
     Gradient error          =      9.2E-04 Ry/Bohr

     bfgs converged in  24 scf cycles and  23 bfgs steps
     (criteria: energy <  1.0E-04 Ry, force <  1.0E-03 Ry/Bohr)

     End of BFGS Geometry Optimization

     Final energy             =   -9109.8119412127 Ry

     File /ddn/data/physics/eamoujaes/2D-Ta2Ni3Te5/ELASTIC/OUT/ta2ni3te5.bfgs deleted, as requested
Begin final coordinates

ATOMIC_POSITIONS (angstrom)
Ta              15.0292890623        0.9149235643       12.5195220247
Ta               6.6899660650        2.7447696811       12.5152983659
Ta               2.5345368822        0.9149235643       12.4832714463
Ta              10.8762645820        2.7447696811       12.5530223023
Ni              12.6179901812        0.9149235643       11.7704673609
Ni               4.2804299919        2.7447696811       13.2650234973
Ni               4.9427558320        0.9149235643       11.7149292393
Ni              13.2834947729        2.7447696811       13.3202785984
Ni               8.7793537366        0.9149235643       12.4020509860
Ni               0.4373854628        2.7447696811       12.6370788411
Te              13.8985158249        2.7447696811       10.5484269936
Te               5.5630092069        0.9149235643       14.4868613686
Te              10.4495008665        0.9149235643       10.4570058415
Te               2.1113243653        2.7447696811       14.5787633567
Te               3.6476020342        2.7447696811       10.5001957889
Te              11.9914743106        0.9149235643       14.5351638349
Te               7.1297677403        0.9149235643       10.4258191093
Te              15.4677105305        2.7447696811       14.6085621059
Te               0.4265420579        0.9149235643       10.7373567504
Te               8.7716488574        2.7447696811       14.2991531877
End final coordinates

     Writing all to output data dir /ddn/data/physics/eamoujaes/2D-Ta2Ni3Te5/ELASTIC/OUT/ta2ni3te5.save/ :
     XML data file, charge density, pseudopotentials, collected wavefunctions

     General routines
                                        2.65s GPU  (    7123 calls)
                                        0.07s GPU  (     529 calls)
                                      526.50s GPU  (  324900 calls)

     Parallel routines

   This run was terminated on:  10: 9: 8  28Jul2024

   JOB DONE.