     Program PWSCF v.7.3 starts on 28Jul2024 at 10: 9:20

     Waiting for input...
     Reading input from standard input
Warning: card &CELL ignored
Warning: card CELL_DYNAMICS='BFGS' ignored
Warning: card PRESS=0.0 ignored
Warning: card CELL_DOFREE='2DXY' ignored
Warning: card / ignored

     Current dimensions of program PWSCF are:
     Max number of different atomic species (ntypx) = 10
     Max number of k-points (npk) =  40000
     Max angular momentum in pseudopotentials (lmaxx) =  4
read_pp_mesh; mismatch in mesh size, discarding the one in header
read_pp_mesh; mismatch in mesh size, discarding the one in header
read_pp_mesh; mismatch in mesh size, discarding the one in header
     Message from routine setup:
     using ibrav=0 with symmetry is DISCOURAGED, use correct ibrav instead

     Subspace diagonalization in iterative solution of the eigenvalue problem:
     a serial algorithm will be used

     Using Slab Decomposition

     bravais-lattice index     =            0
     lattice parameter (alat)  =      32.0023  a.u.
     unit-cell volume          =   10470.8468 (a.u.)^3
     number of atoms/cell      =           20
     number of atomic types    =            3
     number of electrons       =       220.00
     number of Kohn-Sham states=          132
     kinetic-energy cutoff     =      60.0000  Ry
     charge density cutoff     =     480.0000  Ry
     scf convergence threshold =      1.0E-08
     mixing beta               =       0.2000
     number of iterations used =            8  plain     mixing
     energy convergence thresh.=      1.0E-04
     force convergence thresh. =      1.0E-03
     Exchange-correlation= SLA PW PBX PBC
                           (   1   4   3   4   0   0   0)
     nstep                     =         2000

     celldm(1)=  32.002323  celldm(2)=   0.000000  celldm(3)=   0.000000
     celldm(4)=   0.000000  celldm(5)=   0.000000  celldm(6)=   0.000000

     crystal axes: (cart. coord. in units of alat)
               a(1) = (   1.000000   0.000000   0.000000 )
               a(2) = (   0.000000   0.216104   0.000000 )
               a(3) = (   0.000000   0.000000   1.478344 )

     reciprocal axes: (cart. coord. in units 2 pi/alat)
               b(1) = (  1.000000  0.000000  0.000000 )
               b(2) = (  0.000000  4.627411  0.000000 )
               b(3) = (  0.000000  0.000000  0.676433 )

     PseudoPot. # 1 for Ta read from file:
     /ddn/data/physics/eamoujaes/PSEUDO-CREATED/Ta.upf
     MD5 check sum: d865b2c2c09566b116f2b8decb2c153d
     Pseudo is Projector augmented-wave + core cor, Zval = 13.0
     Generated using ATOMPAW code
     Shape of augmentation charge: SINC**2
     Using radial grid of 2342 points,  6 beta functions with:
                l(1) =   0
                l(2) =   0
                l(3) =   1
                l(4) =   1
                l(5) =   2
                l(6) =   2
     Q(r) pseudized with 0 coefficients

     PseudoPot. # 2 for Ni read from file:
     /ddn/data/physics/eamoujaes/PSEUDO-CREATED/Ni.upf
     MD5 check sum: 85a2a5d9d38f4289a1cc30d5adb66a03
     Pseudo is Projector augmented-wave + core cor, Zval = 18.0
     Generated using ATOMPAW code
     Shape of augmentation charge: SINC**2
     Using radial grid of 2342 points,  6 beta functions with:
                l(1) =   0
                l(2) =   0
                l(3) =   1
                l(4) =   1
                l(5) =   2
                l(6) =   2
     Q(r) pseudized with 0 coefficients

     PseudoPot. # 3 for Te read from file:
     /ddn/data/physics/eamoujaes/PSEUDO-CREATED/Te.upf
     MD5 check sum: 8d958f193a7511a138982c2e72838810
     Pseudo is Projector augmented-wave + core cor, Zval =  6.0
     Generated using ATOMPAW code
     Shape of augmentation charge: SINC**2
     Using radial grid of 2342 points,  4 beta functions with:
                l(1) =   0
                l(2) =   0
                l(3) =   1
                l(4) =   1
     Q(r) pseudized with 0 coefficients

     atomic species   valence    mass     pseudopotential
     Ta               13.00   180.94790     Ta( 1.00)
     Ni               18.00    58.69340     Ni( 1.00)
     Te                6.00   127.60000     Te( 1.00)

      2 Sym. Ops. (no inversion) found ( 1 have fractional translation)

   Cartesian axes

     site n.     atom                  positions (alat units)
         1        Ta     tau(   1) = (   0.9088829   0.0540259   0.7348045  )
         2        Ta     tau(   2) = (   0.3880478   0.1620777   0.7435530  )
         3        Ta     tau(   3) = (   0.1337567   0.0540259   0.7347942  )
         4        Ta     tau(   4) = (   0.6545922   0.1620777   0.7435625  )
         5        Ni     tau(   5) = (   0.7596389   0.0540259   0.6945237  )
         6        Ni     tau(   6) = (   0.2388027   0.1620777   0.7838336  )
         7        Ni     tau(   7) = (   0.2829935   0.0540259   0.6945080  )
         8        Ni     tau(   8) = (   0.8038288   0.1620777   0.7838488  )
         9        Ni     tau(   9) = (   0.5213108   0.0540259   0.7303383  )
        10        Ni     tau(  10) = (   0.0004769   0.1620777   0.7480180  )
        11        Te     tau(  11) = (   0.8392752   0.1620777   0.6221033  )
        12        Te     tau(  12) = (   0.3184384   0.0540259   0.8562538  )
        13        Te     tau(  13) = (   0.6256567   0.0540259   0.6211630  )
        14        Te     tau(  14) = (   0.1048220   0.1620777   0.8571940  )
        15        Te     tau(  15) = (   0.2033486   0.1620777   0.6220901  )
        16        Te     tau(  16) = (   0.7241843   0.0540259   0.8562668  )
        17        Te     tau(  17) = (   0.4169861   0.0540259   0.6211534  )
        18        Te     tau(  18) = (   0.9378208   0.1620777   0.8572042  )
        19        Te     tau(  19) = (   0.0004900   0.0540259   0.6399577  )
        20        Te     tau(  20) = (   0.5213233   0.1620777   0.8383975  )

     number of k points=    12  Gaussian smearing, width (Ry)=  0.0020
                       cart. coord. in units 2pi/alat
        k(    1) = (   0.0000000   0.0000000   0.0000000), wk =   0.1000000
        k(    2) = (   0.0000000   0.4627411   0.0000000), wk =   0.2000000
        k(    3) = (   0.0000000   0.9254822   0.0000000), wk =   0.2000000
        k(    4) = (   0.0000000   1.3882233   0.0000000), wk =   0.2000000
        k(    5) = (   0.0000000   1.8509644   0.0000000), wk =   0.2000000
        k(    6) = (   0.0000000  -2.3137055   0.0000000), wk =   0.1000000
        k(    7) = (  -0.5000000   0.0000000   0.0000000), wk =   0.1000000
        k(    8) = (  -0.5000000   0.4627411   0.0000000), wk =   0.2000000
        k(    9) = (  -0.5000000   0.9254822   0.0000000), wk =   0.2000000
        k(   10) = (  -0.5000000   1.3882233   0.0000000), wk =   0.2000000
        k(   11) = (  -0.5000000   1.8509644   0.0000000), wk =   0.2000000
        k(   12) = (  -0.5000000  -2.3137055   0.0000000), wk =   0.1000000

     Initial potential from superposition of free atoms

     starting charge     219.9927, renormalised to     220.0000

     negative rho (up, down):  4.943E-02 0.000E+00
     Starting wfcs are  260 randomized atomic wfcs
     Checking if some PAW data can be deallocated...

     Self-consistent Calculation

     iteration #  1     ecut=    60.00 Ry     beta= 0.20
     Davidson diagonalization with overlap
     ethr =  1.00E-02,  avg # of iterations =  2.9

     negative rho (up, down):  5.008E-02 0.000E+00

     total energy              =   -9107.46240066 Ry
     estimated scf accuracy    <       8.25002460 Ry

[...]

     iteration # 11     ecut=    60.00 Ry     beta= 0.20
     Davidson diagonalization with overlap
     c_bands:  1 eigenvalues not converged
     c_bands:  1 eigenvalues not converged
     c_bands:  1 eigenvalues not converged
     ethr =  1.13E-05,  avg # of iterations = 14.8

[...]

     End of self-consistent calculation

          k = 0.0000 0.0000 0.0000 ( 82327 PWs)   bands (ev):

  -103.5430-103.2869-103.2532-102.9753-102.8642-102.7601 -68.5685 -68.4988
   -68.3531 -67.8510 -64.0614 -63.9936 -63.9036 -63.8500 -63.8293 -63.6983
   -63.6335 -63.5726 -63.5382 -63.5127 -63.4301 -63.3580 -63.2829 -63.2565
   -63.2554 -63.2276 -63.1463 -63.0427 -35.0789 -35.0178 -35.0042 -34.9815
   -34.9403 -34.9338 -34.8587 -34.7888 -34.7796 -34.7682 -34.4647 -34.3932
   -13.6051 -12.8088 -12.6066 -12.3565 -11.9505 -11.7469 -11.6061 -11.5529
   -11.4318 -11.2364  -6.5111  -6.0704  -5.8182  -5.6035  -5.5446  -5.2949
    -5.2384  -4.8634  -4.5928  -4.1795  -4.1127  -4.0928  -3.8931  -3.7155
    -3.6405  -3.6274  -3.5274  -3.5138  -3.3206  -3.1824  -3.0361  -3.0077
    -2.7316  -2.7161  -2.6726  -2.5854  -2.5690  -2.4404  -2.4389  -2.2234
    -2.1635  -2.0905  -1.9862  -1.9137  -1.8998  -1.8719  -1.6933  -1.6906
    -1.6079  -1.5694  -1.5513  -1.3567  -1.2642  -1.2219  -1.1805  -1.0741
    -1.0025  -0.9534  -0.9390  -0.8741  -0.7487  -0.6304  -0.5460  -0.5063
    -0.4247  -0.2835  -0.2542  -0.1470   0.0600   0.1528   0.2047   0.3689
     0.9205   0.9878   1.1758   1.3124   1.4211   1.6767   1.7830   1.8569
     2.0027   2.1282   2.5003   2.6027   3.0132   3.1860   3.2484   3.2907
     3.4927   3.5487   3.6620   3.7152

[...]

          k =-0.5000 0.0000 0.0000 ( 82326 PWs)   bands (ev):

[...]

     the Fermi energy is     0.1717 ev

!    total energy              =   -9109.48512923 Ry
     total all-electron energy =     -9109.485129 Ry
     estimated scf accuracy    <          5.9E-09 Ry
     smearing contrib. (-TS)   =      -0.00031025 Ry
     internal energy E=F+TS    =   -9109.48481899 Ry

     The total energy is F=E-TS. E is the sum of the following terms:
     one-electron contribution =  -16984.22728029 Ry
     hartree contribution      =    8352.23274420 Ry
     xc contribution           =    -365.77163846 Ry
     ewald contribution        =    6156.07368232 Ry
     one-center paw contrib.   =   -6267.79232676 Ry

     convergence has been achieved in  28 iterations

[...]

     Forces acting on atoms (cartesian axes, Ry/au):

     atom    1 type  1   force =    -0.42346613    0.00000000    0.29759078
     atom    2 type  1   force =     0.01091436    0.00000000   -0.00018559
     atom    3 type  1   force =     0.03975310    0.00000000    0.00761870
     atom    4 type  1   force =     0.00654031    0.00000000   -0.00673314
     atom    5 type  2   force =    -0.00996900    0.00000000   -0.00403392
     atom    6 type  2   force =    -0.00241815    0.00000000   -0.00411741
     atom    7 type  2   force =    -0.00353026    0.00000000   -0.00056535
     atom    8 type  2   force =    -0.02700520    0.00000000    0.01036069
     atom    9 type  2   force =    -0.00571988    0.00000000    0.00096627
     atom   10 type  2   force =     0.25548625    0.00000000   -0.18788790
     atom   11 type  3   force =    -0.05832017    0.00000000   -0.01092431
     atom   12 type  3   force =    -0.00109629    0.00000000    0.00128472
     atom   13 type  3   force =     0.00159802    0.00000000    0.00051914
     atom   14 type  3   force =     0.08902169    0.00000000    0.00357740
     atom   15 type  3   force =    -0.00066782    0.00000000    0.00122185
     atom   16 type  3   force =     0.00290433    0.00000000    0.00148378
     atom   17 type  3   force =     0.00006874    0.00000000    0.00046368
     atom   18 type  3   force =    -0.21853754    0.00000000    0.22595902
     atom   19 type  3   force =     0.34908839    0.00000000   -0.33773835
     atom   20 type  3   force =    -0.00464477    0.00000000    0.00113994

     Total force =     0.847096     Total SCF correction =     0.000413

     Computing stress (Cartesian axis) and pressure

     negative rho (up, down):  6.609E-02 0.000E+00
          total   stress  (Ry/bohr**3)                   (kbar)     P=       22.25
   0.00025283   0.00000000  -0.00012257           37.19        0.00      -18.03
   0.00000000   0.00005940   0.00000000            0.00        8.74        0.00
  -0.00012257   0.00000000   0.00014152          -18.03        0.00       20.82

     BFGS Geometry Optimization
     Energy error            =      0.0E+00 Ry
     Gradient error          =      4.2E-01 Ry/Bohr

     number of scf cycles    =   1
     number of bfgs steps    =   0

     energy             new  =   -9109.4851292317 Ry

     new trust radius        =       0.5000000000 bohr
     new conv_thr            =       0.0000000100 Ry

ATOMIC_POSITIONS (angstrom)
Ta              15.1753614336        0.9149235643       12.5959711061
Ta               6.5771300267        2.7447696811       12.5919014583
Ta               2.2854777283        0.9149235643       12.4475607049
Ta              11.0887968080        2.7447696811       12.5887144497
Ni              12.8593119243        0.9149235643       11.7596274233
Ni               4.0428639460        2.7447696811       13.2720390955
Ni               4.7906620264        0.9149235643       11.7611339487
Ni              13.5989553319        2.7447696811       13.2796974806
Ni               8.8254226157        0.9149235643       12.3686995623
Ni               0.1386835909        2.7447696811       12.5715599634
Te              14.1832286199        2.7447696811       10.5296721545
Te               5.3921614227        0.9149235643       14.5012288645
Te              10.5962500408        0.9149235643       10.5195992629
Te               1.8206587086        2.7447696811       14.5183237532
Te               3.4433472960        2.7447696811       10.5356581596
Te              12.2654742545        0.9149235643       14.5015510689
Te               7.0616535632        0.9149235643       10.5194083061
Te              15.7701837077        2.7447696811       14.6321792521
Te               0.1867557999        0.9149235643       10.6649644215
Te               8.8261835182        2.7447696811       14.1987605637

     Writing config-only to output data dir /ddn/data/physics/eamoujaes/2D-Ta2Ni3Te5/ELASTIC/OUT/ta2ni3te5.save/ :
     XML data file
     NEW-OLD atomic charge density approx. for the potential

[...]

     Energy error            =      3.0E-01 Ry
     Gradient error          =      5.9E-02 Ry/Bohr

[...]

     energy             old  =   -9109.4851292317 Ry
     energy             new  =   -9109.7821489551 Ry

     CASE: energy            _new < energy            _old

[...]

     iteration #  1     ecut=    60.00 Ry     beta= 0.20
     Davidson diagonalization with overlap
     c_bands:  1 eigenvalues not converged
     ethr =  1.00E-06,  avg # of iterations = 12.9

[...]

     Threshold (ethr) on eigenvalues was too large:
     Diagonalizing with lowered threshold

     Davidson diagonalization with overlap
     ethr =  4.29E-08,  avg # of iterations =  4.0

[...]

     number of scf cycles    =  19
     number of bfgs steps    =  18

     energy             old  =   -9109.8408125244 Ry
     energy             new  =   -9109.8408300558 Ry

     CASE: energy            _new < energy            _old

     new trust radius        =       0.0060450366 bohr
     new conv_thr            =            1.0E-10 Ry

ATOMIC_POSITIONS (angstrom)
Ta              15.1244951074        0.9149235643       12.4937392905
Ta               6.6569409009        2.7447696811       12.5419820611
Ta               2.4628450598        0.9149235643       12.4668346194
Ta              10.9327349964        2.7447696811       12.5669352822
Ni              12.6844045973        0.9149235643       11.7691637003
Ni               4.2156387614        2.7447696811       13.2703412689
Ni               4.9059723370        0.9149235643       11.7333386074
Ni              13.3718418692        2.7447696811       13.3067760968
Ni               8.7925678675        0.9149235643       12.3975913009
Ni               0.3235439214        2.7447696811       12.6331567689
Te              13.9800748040        2.7447696811       10.5418212854
Te               5.5157426069        0.9149235643       14.4959669662
Te              10.4854361779        0.9149235643       10.4788882973
Te               2.0138298460        2.7447696811       14.5548895156
Te               3.5992759252        2.7447696811       10.5120148970
Te              12.0633250121        0.9149235643       14.5276639692
Te               7.1151360785        0.9149235643       10.4575424150
Te              15.5853995799        2.7447696811       14.5770822480
Te               0.3152458153        0.9149235643       10.7577100170
Te               8.7841110993        2.7447696811       14.2748123927

     Writing config-only to output data dir /ddn/data/physics/eamoujaes/2D-Ta2Ni3Te5/ELASTIC/OUT/ta2ni3te5.save/ :
     XML data file
     NEW-OLD atomic charge density approx. for the potential

[...]

     Self-consistent Calculation

[...]

     Threshold (ethr) on eigenvalues was too large:
     Diagonalizing with lowered threshold

     Davidson diagonalization with overlap
     ethr =  7.33E-09,  avg # of iterations =  5.8

[...]

     total energy              =   -9109.84084511 Ry
     estimated scf accuracy    <          1.1E-10 Ry

     iteration # 18     ecut=    60.00 Ry     beta= 0.20
     Davidson diagonalization with overlap
     ethr =  1.00E-13,  avg # of iterations =  1.2

[...]

     End of self-consistent calculation

[...]

          k = 0.0000-2.3137 0.0000 ( 81938 PWs)   bands (ev):

[...]

          k =-0.5000-2.3137 0.0000 ( 81920 PWs)   bands (ev):

  -103.2593-103.2522-103.2432-103.2411-102.8526-102.8491 -68.3909 -68.3900
   -68.3891 -68.3886 -63.8306 -63.8237 -63.8151 -63.8128 -63.6436 -63.6370
   -63.6312 -63.6298 -63.5418 -63.5360 -63.5273 -63.5263 -63.3427 -63.3401
   -63.3111 -63.3074 -63.1493 -63.1451 -34.9056 -34.9051 -34.9050 -34.9044
   -34.9037 -34.9031 -34.9028 -34.9024 -34.8285 -34.8278 -34.8226 -34.8220
   -11.4601 -11.4555 -11.1702 -11.1668 -11.1499 -11.1454 -11.0677 -11.0665
   -10.8449 -10.8418  -6.2120  -6.2096  -5.9082  -5.9028  -5.3533  -5.3510
    -4.9597  -4.9596  -4.7686  -4.7635  -4.0627  -4.0599  -4.0075  -4.0056
    -3.6274  -3.6264  -3.5440  -3.5417  -3.4817  -3.4798  -3.3282  -3.3269
    -3.2225  -3.2219  -3.1022  -3.1020  -2.7714  -2.7675  -2.7577  -2.7550
    -2.4626  -2.4596  -2.3125  -2.3112  -2.1389  -2.1386  -2.1323  -2.1314
    -2.0274  -2.0245  -1.8112  -1.8107  -1.7381  -1.7365  -1.6068  -1.5983
    -1.4596  -1.4591  -1.2610  -1.2600  -1.1824  -1.1809  -1.0651  -1.0613
    -1.0217  -1.0185  -0.7660  -0.7658  -0.5507  -0.5478   0.4774   0.4789
     1.1164   1.1171   1.5541   1.5566   1.5584   1.5606   2.1462   2.1507
     2.3363   2.3371   2.4961   2.4979   2.6818   2.6821   2.9772   2.9789
     3.1402   3.1425   3.7383   3.7427

     the Fermi energy is     0.1893 ev

!    total energy              =   -9109.84084511 Ry
     total all-electron energy =     -9109.840845 Ry
     estimated scf accuracy    <          6.1E-11 Ry
     smearing contrib. (-TS)   =      -0.00002013 Ry
     internal energy E=F+TS    =   -9109.84082498 Ry

     The total energy is F=E-TS. E is the sum of the following terms:
     one-electron contribution =  -16886.10503447 Ry
     hartree contribution      =    8303.14006294 Ry
     xc contribution           =    -365.23732888 Ry
     ewald contribution        =    6106.12563701 Ry
     one-center paw contrib.   =   -6267.76416159 Ry

     convergence has been achieved in  18 iterations

     negative rho (up, down):  6.507E-02 0.000E+00

     Forces acting on atoms (cartesian axes, Ry/au):

     atom    1 type  1   force =    -0.00019646    0.00000000    0.00018136
     atom    2 type  1   force =    -0.00025557    0.00000000    0.00003874
     atom    3 type  1   force =     0.00019128    0.00000000    0.00062601
     atom    4 type  1   force =    -0.00048564    0.00000000    0.00006994
     atom    5 type  2   force =    -0.00048646    0.00000000   -0.00024084
     atom    6 type  2   force =    -0.00012560    0.00000000    0.00003989
     atom    7 type  2   force =    -0.00015347    0.00000000   -0.00016146
     atom    8 type  2   force =     0.00015966    0.00000000    0.00023118
     atom    9 type  2   force =    -0.00023743    0.00000000   -0.00019540
     atom   10 type  2   force =     0.00017114    0.00000000    0.00055761
     atom   11 type  3   force =     0.00052699    0.00000000   -0.00007394
     atom   12 type  3   force =     0.00002214    0.00000000   -0.00015177
     atom   13 type  3   force =     0.00012152    0.00000000   -0.00024102
     atom   14 type  3   force =     0.00072946    0.00000000    0.00013091
     atom   15 type  3   force =    -0.00039999    0.00000000   -0.00031051
     atom   16 type  3   force =     0.00007964    0.00000000   -0.00030934
     atom   17 type  3   force =    -0.00020231    0.00000000    0.00022353
     atom   18 type  3   force =    -0.00093786    0.00000000   -0.00019163
     atom   19 type  3   force =     0.00072062    0.00000000    0.00000118
     atom   20 type  3   force =     0.00075832    0.00000000   -0.00022443

     Total force =     0.002263     Total SCF correction =     0.000046

     Computing stress (Cartesian axis) and pressure

     negative rho (up, down):  6.507E-02 0.000E+00
          total   stress  (Ry/bohr**3)                   (kbar)     P=        5.06
   0.00012072   0.00000000   0.00000008           17.76        0.00        0.01
   0.00000000   0.00002283   0.00000000            0.00        3.36        0.00
   0.00000008   0.00000000  -0.00004040            0.01        0.00       -5.94

     Energy error            =      1.5E-05 Ry
     Gradient error          =      9.4E-04 Ry/Bohr

     bfgs converged in  20 scf cycles and  19 bfgs steps
     (criteria: energy <  1.0E-04 Ry, force <  1.0E-03 Ry/Bohr)

     End of BFGS Geometry Optimization

     Final energy             =   -9109.8408451116 Ry

     File /ddn/data/physics/eamoujaes/2D-Ta2Ni3Te5/ELASTIC/OUT/ta2ni3te5.bfgs deleted, as requested
Begin final coordinates

ATOMIC_POSITIONS (angstrom)
Ta              15.1244951074        0.9149235643       12.4937392905
Ta               6.6569409009        2.7447696811       12.5419820611
Ta               2.4628450598        0.9149235643       12.4668346194
Ta              10.9327349964        2.7447696811       12.5669352822
Ni              12.6844045973        0.9149235643       11.7691637003
Ni               4.2156387614        2.7447696811       13.2703412689
Ni               4.9059723370        0.9149235643       11.7333386074
Ni              13.3718418692        2.7447696811       13.3067760968
Ni               8.7925678675        0.9149235643       12.3975913009
Ni               0.3235439214        2.7447696811       12.6331567689
Te              13.9800748040        2.7447696811       10.5418212854
Te               5.5157426069        0.9149235643       14.4959669662
Te              10.4854361779        0.9149235643       10.4788882973
Te               2.0138298460        2.7447696811       14.5548895156
Te               3.5992759252        2.7447696811       10.5120148970
Te              12.0633250121        0.9149235643       14.5276639692
Te               7.1151360785        0.9149235643       10.4575424150
Te              15.5853995799        2.7447696811       14.5770822480
Te               0.3152458153        0.9149235643       10.7577100170
Te               8.7841110993        2.7447696811       14.2748123927
End final coordinates

     Writing all to output data dir /ddn/data/physics/eamoujaes/2D-Ta2Ni3Te5/ELASTIC/OUT/ta2ni3te5.save/ :
     XML data file, charge density, pseudopotentials, collected wavefunctions

     General routines
                                        2.19s GPU  (    5885 calls)
                                        0.05s GPU  (     436 calls)
                                      433.46s GPU  (  267364 calls)

     Parallel routines

   This run was terminated on:  15:14:50  28Jul2024

   JOB DONE.