     Program PWSCF v.7.3 starts on 28Jul2024 at 15:15: 0

     Waiting for input...
     Reading input from standard input
Warning: card &CELL ignored
Warning: card CELL_DYNAMICS='BFGS' ignored
Warning: card PRESS=0.0 ignored
Warning: card CELL_DOFREE='2DXY' ignored
Warning: card / ignored

     Current dimensions of program PWSCF are:
     Max number of different atomic species (ntypx) = 10
     Max number of k-points (npk) =  40000
     Max angular momentum in pseudopotentials (lmaxx) =  4
read_pp_mesh; mismatch in mesh size, discarding the one in header
read_pp_mesh; mismatch in mesh size, discarding the one in header
read_pp_mesh; mismatch in mesh size, discarding the one in header
     Message from routine setup:
     using ibrav=0 with symmetry is DISCOURAGED, use correct ibrav instead

     Subspace diagonalization in iterative solution of the eigenvalue problem:
     a serial algorithm will be used

     Using Slab Decomposition

     bravais-lattice index     =            0
     lattice parameter (alat)  =      32.6690  a.u.
     unit-cell volume          =   10688.9830 (a.u.)^3
     number of atoms/cell      =           20
     number of atomic types    =            3
     number of electrons       =       220.00
     number of Kohn-Sham states=          132
     kinetic-energy cutoff     =      60.0000  Ry
     charge density cutoff     =     480.0000  Ry
     scf convergence threshold =      1.0E-08
     mixing beta               =       0.2000
     number of iterations used =            8  plain     mixing
     energy convergence thresh.=      1.0E-04
     force convergence thresh. =      1.0E-03
     Exchange-correlation= SLA PW PBX PBC
                           (   1   4   3   4   0   0   0)
     nstep                     =         2000

     celldm(1)=  32.669018  celldm(2)=   0.000000  celldm(3)=   0.000000
     celldm(4)=   0.000000  celldm(5)=   0.000000  celldm(6)=   0.000000

     crystal axes: (cart. coord. in units of alat)
               a(1) = (   1.000000   0.000000   0.000000 )
               a(2) = (   0.000000   0.211693   0.000000 )
               a(3) = (   0.000000   0.000000   1.448174 )

     reciprocal axes: (cart. coord. in units 2 pi/alat)
               b(1) = (  1.000000  0.000000  0.000000 )
               b(2) = (  0.000000  4.723813  0.000000 )
               b(3) = (  0.000000  0.000000  0.690525 )

     PseudoPot. # 1 for Ta read from file:
     /ddn/data/physics/eamoujaes/PSEUDO-CREATED/Ta.upf
     MD5 check sum: d865b2c2c09566b116f2b8decb2c153d
     Pseudo is Projector augmented-wave + core cor, Zval = 13.0
     Generated using ATOMPAW code
     Shape of augmentation charge: SINC**2
     Using radial grid of 2342 points,  6 beta functions with:
                l(1) =   0
                l(2) =   0
                l(3) =   1
                l(4) =   1
                l(5) =   2
                l(6) =   2
     Q(r) pseudized with 0 coefficients

     PseudoPot. # 2 for Ni read from file:
     /ddn/data/physics/eamoujaes/PSEUDO-CREATED/Ni.upf
     MD5 check sum: 85a2a5d9d38f4289a1cc30d5adb66a03
     Pseudo is Projector augmented-wave + core cor, Zval = 18.0
     Generated using ATOMPAW code
     Shape of augmentation charge: SINC**2
     Using radial grid of 2342 points,  6 beta functions with:
                l(1) =   0
                l(2) =   0
                l(3) =   1
                l(4) =   1
                l(5) =   2
                l(6) =   2
     Q(r) pseudized with 0 coefficients

     PseudoPot. # 3 for Te read from file:
     /ddn/data/physics/eamoujaes/PSEUDO-CREATED/Te.upf
     MD5 check sum: 8d958f193a7511a138982c2e72838810
     Pseudo is Projector augmented-wave + core cor, Zval =  6.0
     Generated using ATOMPAW code
     Shape of augmentation charge: SINC**2
     Using radial grid of 2342 points,  4 beta functions with:
                l(1) =   0
                l(2) =   0
                l(3) =   1
                l(4) =   1
     Q(r) pseudized with 0 coefficients

     atomic species   valence    mass     pseudopotential
     Ta               13.00   180.94790     Ta( 1.00)
     Ni               18.00    58.69340     Ni( 1.00)
     Te                6.00   127.60000     Te( 1.00)

      2 Sym. Ops. (no inversion) found ( 1 have fractional translation)

   Cartesian axes

     site n.     atom                  positions (alat units)
         1        Ta     tau(   1) = (   0.8903348   0.0529234   0.7198089  )
         2        Ta     tau(   2) = (   0.3801287   0.1587701   0.7283789  )
         3        Ta     tau(   3) = (   0.1310270   0.0529234   0.7197988  )
         4        Ta     tau(   4) = (   0.6412336   0.1587701   0.7283882  )
         5        Ni     tau(   5) = (   0.7441365   0.0529234   0.6803502  )
         6        Ni     tau(   6) = (   0.2339293   0.1587701   0.7678375  )
         7        Ni     tau(   7) = (   0.2772183   0.0529234   0.6803347  )
         8        Ni     tau(   8) = (   0.7874246   0.1587701   0.7678523  )
         9        Ni     tau(   9) = (   0.5106721   0.0529234   0.7154338  )
        10        Ni     tau(  10) = (   0.0004672   0.1587701   0.7327528  )
        11        Te     tau(  11) = (   0.8221477   0.1587701   0.6094077  )
        12        Te     tau(  12) = (   0.3119398   0.0529234   0.8387797  )
        13        Te     tau(  13) = (   0.6128885   0.0529234   0.6084866  )
        14        Te     tau(  14) = (   0.1026828   0.1587701   0.8397008  )
        15        Te     tau(  15) = (   0.1991988   0.1587701   0.6093947  )
        16        Te     tau(  16) = (   0.7094055   0.0529234   0.8387925  )
        17        Te     tau(  17) = (   0.4084765   0.0529234   0.6084772  )
        18        Te     tau(  18) = (   0.9186822   0.1587701   0.8397107  )
        19        Te     tau(  19) = (   0.0004800   0.0529234   0.6268977  )
        20        Te     tau(  20) = (   0.5106844   0.1587701   0.8212878  )

     number of k points=    12  Gaussian smearing, width (Ry)=  0.0020
                       cart. coord. in units 2pi/alat
        k(    1) = (   0.0000000   0.0000000   0.0000000), wk =   0.1000000
        k(    2) = (   0.0000000   0.4723813   0.0000000), wk =   0.2000000
        k(    3) = (   0.0000000   0.9447625   0.0000000), wk =   0.2000000
        k(    4) = (   0.0000000   1.4171438   0.0000000), wk =   0.2000000
        k(    5) = (   0.0000000   1.8895250   0.0000000), wk =   0.2000000
        k(    6) = (   0.0000000  -2.3619063   0.0000000), wk =   0.1000000
        k(    7) = (  -0.5000000   0.0000000   0.0000000), wk =   0.1000000
        k(    8) = (  -0.5000000   0.4723813   0.0000000), wk =   0.2000000
        k(    9) = (  -0.5000000   0.9447625   0.0000000), wk =   0.2000000
        k(   10) = (  -0.5000000   1.4171438   0.0000000), wk =   0.2000000
        k(   11) = (  -0.5000000   1.8895250   0.0000000), wk =   0.2000000
        k(   12) = (  -0.5000000  -2.3619063   0.0000000), wk =   0.1000000

     Initial potential from superposition of free atoms

     starting charge     219.9927, renormalised to     220.0000

     negative rho (up, down):  5.069E-02 0.000E+00
     Starting wfcs are  260 randomized atomic wfcs
     Checking if some PAW data can be deallocated...

     Self-consistent Calculation

     iteration #  1     ecut=    60.00 Ry     beta= 0.20
     Davidson diagonalization with overlap
     ethr =  1.00E-02,  avg # of iterations =  2.9

     negative rho (up, down):  5.123E-02 0.000E+00

     total energy              =   -9107.90133528 Ry
     estimated scf accuracy    <       7.76007051 Ry

[...]

     iteration # 11     ecut=    60.00 Ry     beta= 0.20
     Davidson diagonalization with overlap
     c_bands:  1 eigenvalues not converged
     ethr =  4.05E-06,  avg # of iterations =  6.2

[...]

     End of self-consistent calculation

          k = 0.0000 0.0000 0.0000 ( 84049 PWs)   bands (ev):

  -103.3312-103.3103-103.2108-103.1566-103.1006-102.8560 -68.6552 -68.6130
   -68.5111 -68.2730 -63.9014 -63.8894 -63.7380 -63.7301 -63.7287 -63.6771
   -63.6747 -63.6658 -63.6222 -63.5760 -63.5514 -63.5024 -63.4756 -63.4489
   -63.3782 -63.3594 -63.3224 -63.1323 -35.1566 -35.1063 -35.0927 -35.0812
   -35.0427 -35.0427 -35.0127 -34.9409 -34.9339 -34.8768 -34.7908 -34.7464
   -13.0958 -12.6469 -12.5277 -12.2493 -12.0081 -11.8511 -11.7219 -11.6865
   -11.5694 -11.3600  -6.2251  -5.8440  -5.7664  -5.7171  -5.5431  -5.3489
    -5.3249  -4.8244  -4.6096  -4.2183  -4.0290  -3.9302  -3.7622  -3.6704
    -3.6338  -3.5847  -3.5018  -3.4829  -3.3094  -3.2151  -2.9933  -2.9084
    -2.7392  -2.6965  -2.6689  -2.6375  -2.5708  -2.4743  -2.2855  -2.2458
    -2.2012  -2.1869  -2.0401  -2.0009  -1.9532  -1.8759  -1.8357  -1.7511
    -1.7283  -1.6776  -1.4718  -1.3882  -1.3451  -1.3092  -1.2543  -1.1375
    -1.1114  -1.0266  -1.0024  -0.9975  -0.9040  -0.7567  -0.6073  -0.5642
    -0.5355  -0.4853  -0.3627  -0.2917  -0.1758   0.0732   0.0989   0.2269
     0.8985   0.9126   1.1332   1.2145   1.3124   1.5128   1.6675   1.7115
     1.8118   2.0342   2.3458   2.3818   2.6488   2.9249   3.1543   3.3107
     3.4271   3.5002   3.5301   3.7614

[...]

          k =-0.5000 0.0000 0.0000 ( 84004 PWs)   bands (ev):

[...]

     the Fermi energy is     0.0811 ev

!    total energy              =   -9109.80575666 Ry
     total all-electron energy =     -9109.805757 Ry
     estimated scf accuracy    <          5.9E-09 Ry
     smearing contrib. (-TS)   =      -0.00012856 Ry
     internal energy E=F+TS    =   -9109.80562811 Ry

     The total energy is F=E-TS. E is the sum of the following terms:
     one-electron contribution =  -16673.88510577 Ry
     hartree contribution      =    8196.34145499 Ry
     xc contribution           =    -365.26286371 Ry
     ewald contribution        =    6000.75249419 Ry
     one-center paw contrib.   =   -6267.75160780 Ry

     convergence has been achieved in  26 iterations

[...]

     Forces acting on atoms (cartesian axes, Ry/au):

     atom    1 type  1   force =    -0.13638171    0.00000000    0.07360439
     atom    2 type  1   force =     0.00586412    0.00000000    0.00166690
     atom    3 type  1   force =     0.01767768    0.00000000    0.00217028
     atom    4 type  1   force =     0.00491841    0.00000000   -0.00259872
     atom    5 type  2   force =    -0.00486451    0.00000000   -0.00145567
     atom    6 type  2   force =    -0.00113624    0.00000000   -0.00061462
     atom    7 type  2   force =    -0.00244200    0.00000000   -0.00007119
     atom    8 type  2   force =    -0.01123664    0.00000000    0.00413251
     atom    9 type  2   force =    -0.00366698    0.00000000   -0.00004288
     atom   10 type  2   force =     0.08980032    0.00000000   -0.05191681
     atom   11 type  3   force =    -0.02016370    0.00000000   -0.00189512
     atom   12 type  3   force =     0.00016074    0.00000000   -0.00011986
     atom   13 type  3   force =     0.00062103    0.00000000    0.00039649
     atom   14 type  3   force =     0.02534854    0.00000000   -0.00090468
     atom   15 type  3   force =     0.00016056    0.00000000    0.00063001
     atom   16 type  3   force =     0.00063801    0.00000000    0.00018032
     atom   17 type  3   force =     0.00042429    0.00000000    0.00003227
     atom   18 type  3   force =    -0.07429475    0.00000000    0.06402531
     atom   19 type  3   force =     0.11168285    0.00000000   -0.08737131
     atom   20 type  3   force =    -0.00311004    0.00000000    0.00015239

     Total force =     0.257183     Total SCF correction =     0.000365

     Computing stress (Cartesian axis) and pressure

     negative rho (up, down):  6.573E-02 0.000E+00
          total   stress  (Ry/bohr**3)                   (kbar)     P=        5.97
   0.00009885   0.00000000  -0.00004095           14.54        0.00       -6.02
   0.00000000   0.00001566   0.00000000            0.00        2.30        0.00
  -0.00004095   0.00000000   0.00000725           -6.02        0.00        1.07

     BFGS Geometry Optimization
     Energy error            =      0.0E+00 Ry
     Gradient error          =      1.4E-01 Ry/Bohr

     number of scf cycles    =   1
     number of bfgs steps    =   0

     energy             new  =   -9109.8057566605 Ry

     new trust radius        =       0.1549760497 bohr
     new conv_thr            =       0.0000000100 Ry

ATOMIC_POSITIONS (angstrom)
Ta              15.3196707347        0.9149235643       12.4827899968
Ta               6.5746536749        2.7447696811       12.5928784181
Ta               2.2745102397        0.9149235643       12.4448144253
Ta              11.0880560587        2.7447696811       12.5907813025
Ni              12.8618339718        0.9149235643       11.7609192869
Ni               4.0434988539        2.7447696811       13.2738187069
Ni               4.7911744713        0.9149235643       11.7613852837
Ni              13.6068144393        2.7447696811       13.2765878387
Ni               8.8264061856        0.9149235643       12.3681829047
Ni               0.0555971851        2.7447696811       12.6401366218
Te              14.2023722018        2.7447696811       10.5342538983
Te               5.3928069168        0.9149235643       14.5005086762
Te              10.5957617516        0.9149235643       10.5195436887
Te               1.7885639561        2.7447696811       14.5160162216
Te               3.4437736569        2.7447696811       10.5353669269
Te              12.2643271591        0.9149235643       14.5008879714
Te               7.0618429449        0.9149235643       10.5191883501
Te              15.8425868166        2.7447696811       14.5505478640
Te               0.0673989444        0.9149235643       10.7913841598
Te               8.8269122003        2.7447696811       14.1982584574

     Writing config-only to output data dir /ddn/data/physics/eamoujaes/2D-Ta2Ni3Te5/ELASTIC/OUT/ta2ni3te5.save/ :
     XML data file
     NEW-OLD atomic charge density approx. for the potential

[...]

     Energy error            =      4.3E-02 Ry
     Gradient error          =      4.1E-02 Ry/Bohr

[...]

     energy             old  =   -9109.8057566605 Ry
     energy             new  =   -9109.8489247798 Ry

     CASE: energy            _new < energy            _old

[...]

     iteration #  5     ecut=    60.00 Ry     beta= 0.20
     Davidson diagonalization with overlap
     c_bands:  1 eigenvalues not converged
     ethr =  2.87E-06,  avg # of iterations =  3.5

[...]

     Threshold (ethr) on eigenvalues was too large:
     Diagonalizing with lowered threshold

     Davidson diagonalization with overlap
     ethr =  6.56E-08,  avg # of iterations =  4.0

[...]

     number of scf cycles    =  17
     number of bfgs steps    =  16

     energy             old  =   -9109.8688972597 Ry
     energy             new  =   -9109.8689094922 Ry

     CASE: energy            _new < energy            _old

     new trust radius        =       0.0031167761 bohr
     new conv_thr            =            1.0E-10 Ry

ATOMIC_POSITIONS (angstrom)
Ta              15.2597205329        0.9149235643       12.4646234326
Ta               6.6121420325        2.7447696811       12.5708457006
Ta               2.3645930476        0.9149235643       12.4546672540
Ta              11.0085193521        2.7447696811       12.5810506871
Ni              12.7741014868        0.9149235643       11.7658660074
Ni               4.1282139054        2.7447696811       13.2751509047
Ni               4.8492188313        0.9149235643       11.7508603418
Ni              13.4935133646        2.7447696811       13.2910975439
Ni               8.8104743546        0.9149235643       12.3830091954
Ni               0.1666720817        2.7447696811       12.6452177414
Te              14.0969875526        2.7447696811       10.5367465110
Te               5.4539737372        0.9149235643       14.5013795465
Te              10.5391200138        0.9149235643       10.5004197270
Te               1.8904409456        2.7447696811       14.5332452756
Te               3.5230038494        2.7447696811       10.5242232722
Te              12.1620923164        0.9149235643       14.5140853122
Te               7.0887554436        0.9149235643       10.4927681241
Te              15.7375398710        2.7447696811       14.5416451006
Te               0.1632253160        0.9149235643       10.7953385430
Te               8.8062543281        2.7447696811       14.2360107788

     Writing config-only to output data dir /ddn/data/physics/eamoujaes/2D-Ta2Ni3Te5/ELASTIC/OUT/ta2ni3te5.save/ :
     XML data file
     NEW-OLD atomic charge density approx. for the potential

[...]

     Self-consistent Calculation

[...]

     Threshold (ethr) on eigenvalues was too large:
     Diagonalizing with lowered threshold

     Davidson diagonalization with overlap
     ethr =  4.41E-09,  avg # of iterations =  5.0

[...]

     total energy              =   -9109.86891891 Ry
     estimated scf accuracy    <          1.0E-10 Ry

     iteration # 17     ecut=    60.00 Ry     beta= 0.20
     Davidson diagonalization with overlap
     ethr =  1.00E-13,  avg # of iterations =  1.3

[...]

     End of self-consistent calculation

[...]

          k = 0.0000-2.3619 0.0000 ( 83678 PWs)   bands (ev):

[...]

          k =-0.5000-2.3619 0.0000 ( 83684 PWs)   bands (ev):

  -103.3054-103.3053-103.3041-103.2929-102.9129-102.9085 -68.5407 -68.5393
   -68.5391 -68.5381 -63.8813 -63.8808 -63.8800 -63.8690 -63.6932 -63.6924
   -63.6919 -63.6822 -63.5828 -63.5820 -63.5815 -63.5709 -63.4124 -63.4095
   -63.3755 -63.3711 -63.1962 -63.1902 -35.0486 -35.0478 -35.0468 -35.0460
   -35.0411 -35.0403 -35.0389 -35.0384 -34.9716 -34.9712 -34.9670 -34.9667
   -11.4917 -11.4850 -11.2517 -11.2515 -11.2355 -11.2340 -11.1449 -11.1429
   -10.9510 -10.9488  -6.2620  -6.2617  -5.9934  -5.9900  -5.4162  -5.4130
    -4.9957  -4.9940  -4.8191  -4.8142  -4.0860  -4.0816  -4.0473  -4.0466
    -3.7080  -3.7071  -3.5930  -3.5909  -3.5119  -3.5095  -3.3782  -3.3772
    -3.3550  -3.3550  -3.1688  -3.1671  -2.8562  -2.8518  -2.8067  -2.8047
    -2.5940  -2.5922  -2.3882  -2.3875  -2.2151  -2.2141  -2.1949  -2.1946
    -2.0854  -2.0837  -1.8794  -1.8793  -1.8059  -1.8031  -1.7067  -1.6956
    -1.4901  -1.4900  -1.2968  -1.2940  -1.2802  -1.2777  -1.1076  -1.1037
    -1.1019  -1.0984  -0.8541  -0.8532  -0.6374  -0.6344   0.4182   0.4196
     1.1127   1.1127   1.3482   1.3497   1.4262   1.4273   2.0090   2.0117
     2.2028   2.2047   2.3728   2.3745   2.5055   2.5058   2.8512   2.8529
     3.0153   3.0167   3.6570   3.6665

     the Fermi energy is     0.1171 ev

!    total energy              =   -9109.86891891 Ry
     total all-electron energy =     -9109.868919 Ry
     estimated scf accuracy    <          5.0E-11 Ry
     smearing contrib. (-TS)   =      -0.00009098 Ry
     internal energy E=F+TS    =   -9109.86882794 Ry

     The total energy is F=E-TS. E is the sum of the following terms:
     one-electron contribution =  -16639.39927733 Ry
     hartree contribution      =    8179.04971912 Ry
     xc contribution           =    -365.09068743 Ry
     ewald contribution        =    5983.31155226 Ry
     one-center paw contrib.   =   -6267.74013455 Ry

     convergence has been achieved in  17 iterations

     negative rho (up, down):  6.529E-02 0.000E+00

     Forces acting on atoms (cartesian axes, Ry/au):

     atom    1 type  1   force =    -0.00093055    0.00000000    0.00009823
     atom    2 type  1   force =     0.00011183    0.00000000    0.00001660
     atom    3 type  1   force =    -0.00013440    0.00000000   -0.00016040
     atom    4 type  1   force =     0.00046414    0.00000000   -0.00015739
     atom    5 type  2   force =    -0.00012673    0.00000000   -0.00011163
     atom    6 type  2   force =     0.00002799    0.00000000   -0.00018490
     atom    7 type  2   force =    -0.00017742    0.00000000   -0.00014205
     atom    8 type  2   force =    -0.00006916    0.00000000   -0.00039001
     atom    9 type  2   force =    -0.00012179    0.00000000    0.00020710
     atom   10 type  2   force =     0.00003330    0.00000000    0.00058696
     atom   11 type  3   force =     0.00016471    0.00000000    0.00027030
     atom   12 type  3   force =     0.00005350    0.00000000   -0.00002716
     atom   13 type  3   force =     0.00003141    0.00000000    0.00007963
     atom   14 type  3   force =     0.00039092    0.00000000    0.00022725
     atom   15 type  3   force =    -0.00025611    0.00000000    0.00002085
     atom   16 type  3   force =     0.00037217    0.00000000   -0.00016505
     atom   17 type  3   force =    -0.00001050    0.00000000   -0.00008511
     atom   18 type  3   force =    -0.00070092    0.00000000    0.00011731
     atom   19 type  3   force =     0.00064145    0.00000000   -0.00027831
     atom   20 type  3   force =     0.00023616    0.00000000    0.00007777

     Total force =     0.001860     Total SCF correction =     0.000040

     Computing stress (Cartesian axis) and pressure

     negative rho (up, down):  6.529E-02 0.000E+00
          total   stress  (Ry/bohr**3)                   (kbar)     P=        1.42
   0.00005717   0.00000000  -0.00000000            8.41        0.00       -0.00
   0.00000000   0.00001124   0.00000000            0.00        1.65        0.00
  -0.00000000   0.00000000  -0.00003954           -0.00        0.00       -5.82

     Energy error            =      9.4E-06 Ry
     Gradient error          =      9.3E-04 Ry/Bohr

     bfgs converged in  18 scf cycles and  17 bfgs steps
     (criteria: energy <  1.0E-04 Ry, force <  1.0E-03 Ry/Bohr)

     End of BFGS Geometry Optimization

     Final energy             =   -9109.8689189143 Ry

     File /ddn/data/physics/eamoujaes/2D-Ta2Ni3Te5/ELASTIC/OUT/ta2ni3te5.bfgs deleted, as requested
Begin final coordinates

ATOMIC_POSITIONS (angstrom)
Ta              15.2597205329        0.9149235643       12.4646234326
Ta               6.6121420325        2.7447696811       12.5708457006
Ta               2.3645930476        0.9149235643       12.4546672540
Ta              11.0085193521        2.7447696811       12.5810506871
Ni              12.7741014868        0.9149235643       11.7658660074
Ni               4.1282139054        2.7447696811       13.2751509047
Ni               4.8492188313        0.9149235643       11.7508603418
Ni              13.4935133646        2.7447696811       13.2910975439
Ni               8.8104743546        0.9149235643       12.3830091954
Ni               0.1666720817        2.7447696811       12.6452177414
Te              14.0969875526        2.7447696811       10.5367465110
Te               5.4539737372        0.9149235643       14.5013795465
Te              10.5391200138        0.9149235643       10.5004197270
Te               1.8904409456        2.7447696811       14.5332452756
Te               3.5230038494        2.7447696811       10.5242232722
Te              12.1620923164        0.9149235643       14.5140853122
Te               7.0887554436        0.9149235643       10.4927681241
Te              15.7375398710        2.7447696811       14.5416451006
Te               0.1632253160        0.9149235643       10.7953385430
Te               8.8062543281        2.7447696811       14.2360107788
End final coordinates

     Writing all to output data dir /ddn/data/physics/eamoujaes/2D-Ta2Ni3Te5/ELASTIC/OUT/ta2ni3te5.save/ :
     XML data file, charge density, pseudopotentials, collected wavefunctions

     General routines
                                        2.01s GPU  (    5083 calls)
                                        0.05s GPU  (     377 calls)
                                      380.01s GPU  (  228840 calls)

     Parallel routines

   This run was terminated on:  19:37:46  28Jul2024

   JOB DONE.