     Program PWSCF v.7.3 starts on 28Jul2024 at 19:52:31

     Waiting for input...
     Reading input from standard input
Warning: card &CELL ignored
Warning: card CELL_DYNAMICS='BFGS' ignored
Warning: card PRESS=0.0 ignored
Warning: card CELL_DOFREE='2DXY' ignored
Warning: card / ignored

     Current dimensions of program PWSCF are:
     Max number of different atomic species (ntypx) = 10
     Max number of k-points (npk) =  40000
     Max angular momentum in pseudopotentials (lmaxx) =  4
read_pp_mesh; mismatch in mesh size, discarding the one in header
read_pp_mesh; mismatch in mesh size, discarding the one in header
read_pp_mesh; mismatch in mesh size, discarding the one in header
     Message from routine setup:
     using ibrav=0 with symmetry is DISCOURAGED, use correct ibrav instead

     Subspace diagonalization in iterative solution of the eigenvalue problem:
     a serial algorithm will be used

     Using Slab Decomposition

     bravais-lattice index     =            0
     lattice parameter (alat)  =      34.0024  a.u.
     unit-cell volume          =   11125.2554 (a.u.)^3
     number of atoms/cell      =           20
     number of atomic types    =            3
     number of electrons       =       220.00
     number of Kohn-Sham states=          132
     kinetic-energy cutoff     =      60.0000  Ry
     charge density cutoff     =     480.0000  Ry
     scf convergence threshold =      1.0E-08
     mixing beta               =       0.2000
     number of iterations used =            8  plain     mixing
     energy convergence thresh.=      1.0E-04
     force convergence thresh. =      1.0E-03
     Exchange-correlation= SLA PW PBX PBC
                           (   1   4   3   4   0   0   0)
     nstep                     =         2000

     celldm(1)=  34.002409  celldm(2)=   0.000000  celldm(3)=   0.000000
     celldm(4)=   0.000000  celldm(5)=   0.000000  celldm(6)=   0.000000

     crystal axes: (cart. coord. in units of alat)
               a(1) = (   1.000000   0.000000   0.000000 )
               a(2) = (   0.000000   0.203392   0.000000 )
               a(3) = (   0.000000   0.000000   1.391385 )

     reciprocal axes: (cart. coord. in units 2 pi/alat)
               b(1) = (  1.000000  0.000000  0.000000 )
               b(2) = (  0.000000  4.916616  0.000000 )
               b(3) = (  0.000000  0.000000  0.718709 )

     PseudoPot. # 1 for Ta read from file:
     /ddn/data/physics/eamoujaes/PSEUDO-CREATED/Ta.upf
     MD5 check sum: d865b2c2c09566b116f2b8decb2c153d
     Pseudo is Projector augmented-wave + core cor, Zval = 13.0
     Generated using ATOMPAW code
     Shape of augmentation charge: SINC**2
     Using radial grid of 2342 points,  6 beta functions with:
                l(1) =   0
                l(2) =   0
                l(3) =   1
                l(4) =   1
                l(5) =   2
                l(6) =   2
     Q(r) pseudized with 0 coefficients

     PseudoPot. # 2 for Ni read from file:
     /ddn/data/physics/eamoujaes/PSEUDO-CREATED/Ni.upf
     MD5 check sum: 85a2a5d9d38f4289a1cc30d5adb66a03
     Pseudo is Projector augmented-wave + core cor, Zval = 18.0
     Generated using ATOMPAW code
     Shape of augmentation charge: SINC**2
     Using radial grid of 2342 points,  6 beta functions with:
                l(1) =   0
                l(2) =   0
                l(3) =   1
                l(4) =   1
                l(5) =   2
                l(6) =   2
     Q(r) pseudized with 0 coefficients

     PseudoPot. # 3 for Te read from file:
     /ddn/data/physics/eamoujaes/PSEUDO-CREATED/Te.upf
     MD5 check sum: 8d958f193a7511a138982c2e72838810
     Pseudo is Projector augmented-wave + core cor, Zval =  6.0
     Generated using ATOMPAW code
     Shape of augmentation charge: SINC**2
     Using radial grid of 2342 points,  4 beta functions with:
                l(1) =   0
                l(2) =   0
                l(3) =   1
                l(4) =   1
     Q(r) pseudized with 0 coefficients

     atomic species   valence    mass     pseudopotential
     Ta               13.00   180.94790     Ta( 1.00)
     Ni               18.00    58.69340     Ni( 1.00)
     Te                6.00   127.60000     Te( 1.00)

      2 Sym. Ops. (no inversion) found ( 1 have fractional translation)

   Cartesian axes

     site n.     atom                  positions (alat units)
         1        Ta     tau(   1) = (   0.8554207   0.0508480   0.6915819  )
         2        Ta     tau(   2) = (   0.3652221   0.1525440   0.6998158  )
         3        Ta     tau(   3) = (   0.1258888   0.0508480   0.6915722  )
         4        Ta     tau(   4) = (   0.6160878   0.1525440   0.6998247  )
         5        Ni     tau(   5) = (   0.7149555   0.0508480   0.6536705  )
         6        Ni     tau(   6) = (   0.2247559   0.1525440   0.7377270  )
         7        Ni     tau(   7) = (   0.2663473   0.0508480   0.6536557  )
         8        Ni     tau(   8) = (   0.7565461   0.1525440   0.7377413  )
         9        Ni     tau(   9) = (   0.4906463   0.0508480   0.6873784  )
        10        Ni     tau(  10) = (   0.0004489   0.1525440   0.7040182  )
        11        Te     tau(  11) = (   0.7899075   0.1525440   0.5855100  )
        12        Te     tau(  12) = (   0.2997072   0.0508480   0.8058873  )
        13        Te     tau(  13) = (   0.5888544   0.0508480   0.5846250  )
        14        Te     tau(  14) = (   0.0986562   0.1525440   0.8067722  )
        15        Te     tau(  15) = (   0.1913873   0.1525440   0.5854976  )
        16        Te     tau(  16) = (   0.6815865   0.0508480   0.8058996  )
        17        Te     tau(  17) = (   0.3924582   0.0508480   0.5846160  )
        18        Te     tau(  18) = (   0.8826564   0.1525440   0.8067818  )
        19        Te     tau(  19) = (   0.0004612   0.0508480   0.6023141  )
        20        Te     tau(  20) = (   0.4906581   0.1525440   0.7890814  )

     number of k points=    12  Gaussian smearing, width (Ry)=  0.0020
                       cart. coord. in units 2pi/alat
        k(    1) = (   0.0000000   0.0000000   0.0000000), wk =   0.1000000
        k(    2) = (   0.0000000   0.4916616   0.0000000), wk =   0.2000000
        k(    3) = (   0.0000000   0.9833231   0.0000000), wk =   0.2000000
        k(    4) = (   0.0000000   1.4749847   0.0000000), wk =   0.2000000
        k(    5) = (   0.0000000   1.9666462   0.0000000), wk =   0.2000000
        k(    6) = (   0.0000000  -2.4583078   0.0000000), wk =   0.1000000
        k(    7) = (  -0.5000000   0.0000000   0.0000000), wk =   0.1000000
        k(    8) = (  -0.5000000   0.4916616   0.0000000), wk =   0.2000000
        k(    9) = (  -0.5000000   0.9833231   0.0000000), wk =   0.2000000
        k(   10) = (  -0.5000000   1.4749847   0.0000000), wk =   0.2000000
        k(   11) = (  -0.5000000   1.9666462   0.0000000), wk =   0.2000000
        k(   12) = (  -0.5000000  -2.4583078   0.0000000), wk =   0.1000000

     Initial potential from superposition of free atoms

     starting charge     219.9927, renormalised to     220.0000

     negative rho (up, down):  5.183E-02 0.000E+00
     Starting wfcs are  260 randomized atomic wfcs
     Checking if some PAW data can be deallocated...

     Self-consistent Calculation

     iteration #  1     ecut=    60.00 Ry     beta= 0.20
     Davidson diagonalization with overlap
     ethr =  1.00E-02,  avg # of iterations =  2.8

     negative rho (up, down):  5.232E-02 0.000E+00

     total energy              =   -9107.95594790 Ry
     estimated scf accuracy    <       7.72025583 Ry

[...]

     iteration # 10     ecut=    60.00 Ry     beta= 0.20
     Davidson diagonalization with overlap
     c_bands:  1 eigenvalues not converged
     c_bands:  1 eigenvalues not converged
     ethr =  2.15E-05,  avg # of iterations = 10.4

[...]

     End of self-consistent calculation

          k = 0.0000 0.0000 0.0000 ( 87479 PWs)   bands (ev):

  -103.5482-103.5047-103.4322-103.4162-103.0593-102.8677 -68.9950 -68.7743
   -68.7556 -68.7547 -64.1127 -64.0725 -64.0050 -63.9980 -63.9636 -63.8901
   -63.8388 -63.8272 -63.7788 -63.7726 -63.7253 -63.6818 -63.5605 -63.5261
   -63.3617 -63.3377 -63.3089 -63.1847 -35.4682 -35.3911 -35.3852 -35.2577
   -35.2466 -35.2402 -35.2258 -35.1977 -35.1900 -35.1889 -35.1848 -35.1822
   -13.0095 -12.7850 -12.5342 -12.2094 -12.1530 -11.9046 -11.8756 -11.8291
   -11.6929 -11.5707  -6.2496  -6.0507  -5.7997  -5.7136  -5.5304  -5.4460
    -5.3415  -4.7789  -4.7119  -4.2748  -4.2258  -3.9301  -3.8834  -3.8212
    -3.8207  -3.7404  -3.7354  -3.5519  -3.3914  -3.3208  -3.2697  -3.0715
    -2.8700  -2.7507  -2.7335  -2.7071  -2.6869  -2.5284  -2.4106  -2.3481
    -2.3410  -2.2681  -2.1643  -2.0804  -2.0354  -1.9585  -1.9191  -1.8657
    -1.8595  -1.7447  -1.6942  -1.5416  -1.4567  -1.3833  -1.3700  -1.3172
    -1.2738  -1.1820  -1.1678  -1.1585  -1.0518  -1.0266  -0.9134  -0.7892
    -0.7542  -0.6523  -0.5672  -0.4727  -0.2614  -0.0801  -0.0141   0.1006
     0.6568   0.6801   1.0141   1.0289   1.1435   1.2110   1.3651   1.4091
     1.5029   1.7549   1.8909   2.1029   2.2462   2.4085   2.9621   3.1398
     3.1737   3.2445   3.3202   3.5007

[...]

          k =-0.5000 0.0000 0.0000 ( 87516 PWs)   bands (ev):

[...]

     the Fermi energy is    -0.0486 ev

!    total energy              =   -9109.85944093 Ry
     total all-electron energy =     -9109.859441 Ry
     estimated scf accuracy    <          4.2E-09 Ry
     smearing contrib. (-TS)   =      -0.00008271 Ry
     internal energy E=F+TS    =   -9109.85935822 Ry

     The total energy is F=E-TS. E is the sum of the following terms:
     one-electron contribution =  -16161.33918145 Ry
     hartree contribution      =    7938.53714543 Ry
     xc contribution           =    -364.76890626 Ry
     ewald contribution        =    5745.39589233 Ry
     one-center paw contrib.   =   -6267.68430828 Ry

     convergence has been achieved in  29 iterations

[...]

     Forces acting on atoms (cartesian axes, Ry/au):

     atom    1 type  1   force =     0.03700053    0.00000000   -0.00964108
     atom    2 type  1   force =    -0.00184563    0.00000000   -0.00048491
     atom    3 type  1   force =    -0.01165200    0.00000000    0.00083890
     atom    4 type  1   force =    -0.00587812    0.00000000    0.00184225
     atom    5 type  2   force =     0.00644314    0.00000000    0.00032859
     atom    6 type  2   force =    -0.00032589    0.00000000   -0.00097224
     atom    7 type  2   force =     0.00027327    0.00000000   -0.00016694
     atom    8 type  2   force =     0.00756444    0.00000000   -0.00213803
     atom    9 type  2   force =     0.00145094    0.00000000    0.00007832
     atom   10 type  2   force =    -0.02245467    0.00000000    0.00443342
     atom   11 type  3   force =     0.00891879    0.00000000   -0.00123616
     atom   12 type  3   force =     0.00032667    0.00000000    0.00029148
     atom   13 type  3   force =    -0.00025290    0.00000000   -0.00041003
     atom   14 type  3   force =    -0.00801236    0.00000000    0.00223247
     atom   15 type  3   force =     0.00208202    0.00000000   -0.00071933
     atom   16 type  3   force =    -0.00126270    0.00000000    0.00012826
     atom   17 type  3   force =    -0.00023205    0.00000000    0.00011250
     atom   18 type  3   force =     0.02450539    0.00000000   -0.01834675
     atom   19 type  3   force =    -0.03832772    0.00000000    0.02387858
     atom   20 type  3   force =     0.00167887    0.00000000   -0.00004932

     Total force =     0.073532     Total SCF correction =     0.000262

     Computing stress (Cartesian axis) and pressure

     negative rho (up, down):  6.521E-02 0.000E+00
          total   stress  (Ry/bohr**3)                   (kbar)     P=       -5.15
  -0.00004302   0.00000000   0.00001221           -6.33        0.00        1.80
   0.00000000  -0.00001250   0.00000000            0.00       -1.84        0.00
   0.00001221   0.00000000  -0.00004950            1.80        0.00       -7.28

     BFGS Geometry Optimization
     Energy error            =      0.0E+00 Ry
     Gradient error          =      3.8E-02 Ry/Bohr

     number of scf cycles    =   1
     number of bfgs steps    =   0

     energy             new  =   -9109.8594409302 Ry

     new trust radius        =       0.0451575125 bohr
     new conv_thr            =       0.0000000100 Ry

ATOMIC_POSITIONS (angstrom)
Ta              15.4114206622        0.9149235643       12.4387383957
Ta               6.5705738459        2.7447696811       12.5917397308
Ta               2.2589896386        0.9149235643       12.4441098888
Ta              11.0823427770        2.7447696811       12.5931313640
Ni              12.8678177226        0.9149235643       11.7618634790
Ni               4.0439276717        2.7447696811       13.2736294627
Ni               4.7926113335        0.9149235643       11.7613346182
Ni              13.6167635424        2.7447696811       13.2732696109
Ni               8.8291144694        0.9149235643       12.3682470428
Ni              -0.0038055951        2.7447696811       12.6699558752
Te              14.2177619946        2.7447696811       10.5346026037
Te               5.3928947223        0.9149235643       14.5007263514
Te              10.5952992867        0.9149235643       10.5191168973
Te               1.7709101250        2.7447696811       14.5176763263
Te               3.4447904494        2.7447696811       10.5346528899
Te              12.2633213428        0.9149235643       14.5008604192
Te               7.0614956235        0.9149235643       10.5192308065
Te              15.8948696009        2.7447696811       14.5069584479
Te              -0.0119832332        0.9149235643       10.8502550681
Te               8.8294463833        2.7447696811       14.1981517213

     Writing config-only to output data dir /ddn/data/physics/eamoujaes/2D-Ta2Ni3Te5/ELASTIC/OUT/ta2ni3te5.save/ :
     XML data file
     NEW-OLD atomic charge density approx. for the potential

[...]

     Energy error            =      5.1E-03 Ry
     Gradient error          =      3.5E-02 Ry/Bohr

[...]

     energy             old  =   -9109.8594409302 Ry
     energy             new  =   -9109.8645482384 Ry

     CASE: energy            _new < energy            _old

     WARNING: bfgs curvature condition failed, Theta= 0.903
     new trust radius        =       0.0496732638 bohr
     new conv_thr            =       0.0000000035 Ry

[...]

     iteration #  1     ecut=    60.00 Ry     beta= 0.20
     Davidson diagonalization with overlap
     c_bands:  1 eigenvalues not converged
     ethr =  1.00E-06,  avg # of iterations = 12.4

[...]

     Threshold (ethr) on eigenvalues was too large:
     Diagonalizing with lowered threshold

     Davidson diagonalization with overlap
     ethr =  4.35E-08,  avg # of iterations =  4.0

[...]

     number of scf cycles    =  17
     number of bfgs steps    =  16

     energy             old  =   -9109.8861722487 Ry
     energy             new  =   -9109.8862037166 Ry

     CASE: energy            _new < energy            _old

     new trust radius        =       0.0050347221 bohr
     new conv_thr            =            1.0E-10 Ry

ATOMIC_POSITIONS (angstrom)
Ta              15.5246886151        0.9149235643       12.4278879177
Ta               6.5363363801        2.7447696811       12.6088335129
Ta               2.1650235267        0.9149235643       12.4346222263
Ta              11.1606288538        2.7447696811       12.6025879022
Ni              12.9550164050        0.9149235643       11.7566752241
Ni               3.9622638063        2.7447696811       13.2690874713
Ni               4.7377272956        0.9149235643       11.7674096115
Ni              13.7303494762        2.7447696811       13.2569124267
Ni               8.8451243714        0.9149235643       12.3525082000
Ni              -0.1517181637        2.7447696811       12.6954350108
Te              14.3265837470        2.7447696811       10.5366633161
Te               5.3351773647        0.9149235643       14.4948098971
Te              10.6506882606        0.9149235643       10.5372535348
Te               1.6636565653        2.7447696811       14.5026692251
Te               3.3630300169        2.7447696811       10.5453412827
Te              12.3680008792        0.9149235643       14.4867842791
Te               7.0353540042        0.9149235643       10.5401462909
Te              16.0229295767        2.7447696811       14.4964612763
Te              -0.1519087385        0.9149235643       10.8828961613
Te               8.8496101207        2.7447696811       14.1632662329

     Writing config-only to output data dir /ddn/data/physics/eamoujaes/2D-Ta2Ni3Te5/ELASTIC/OUT/ta2ni3te5.save/ :
     XML data file
     NEW-OLD atomic charge density approx. for the potential

[...]

     Self-consistent Calculation

[...]

     Threshold (ethr) on eigenvalues was too large:
     Diagonalizing with lowered threshold

     Davidson diagonalization with overlap
     ethr =  5.48E-09,  avg # of iterations =  5.0

[...]

     total energy              =   -9109.88621988 Ry
     estimated scf accuracy    <          2.9E-10 Ry

     iteration # 18     ecut=    60.00 Ry     beta= 0.20
     Davidson diagonalization with overlap
     ethr =  1.00E-13,  avg # of iterations =  1.0

[...]

     End of self-consistent calculation

[...]

          k = 0.0000-2.4583 0.0000 ( 87034 PWs)   bands (ev):

[...]

          k =-0.5000-2.4583 0.0000 ( 87092 PWs)   bands (ev):

  -103.4172-103.4021-103.4016-103.3974-103.0365-103.0291 -68.8253 -68.8242
   -68.8237 -68.8232 -63.9957 -63.9812 -63.9803 -63.9764 -63.8134 -63.8011
   -63.7988 -63.7947 -63.6813 -63.6667 -63.6657 -63.6622 -63.5410 -63.5349
   -63.5049 -63.4975 -63.3108 -63.3023 -35.3204 -35.3198 -35.3195 -35.3183
   -35.2962 -35.2954 -35.2950 -35.2940 -35.2484 -35.2476 -35.2462 -35.2452
   -11.5436 -11.5349 -11.4259 -11.4253 -11.4094 -11.4092 -11.2922 -11.2906
   -11.1387 -11.1356  -6.3666  -6.3664  -6.1546  -6.1511  -5.5338  -5.5299
    -5.0664  -5.0640  -4.9271  -4.9207  -4.1431  -4.1429  -4.1192  -4.1127
    -3.8581  -3.8567  -3.6678  -3.6625  -3.6038  -3.6006  -3.5537  -3.5481
    -3.4840  -3.4824  -3.2958  -3.2940  -3.0343  -3.0279  -2.9869  -2.9855
    -2.7639  -2.7585  -2.5479  -2.5477  -2.3523  -2.3507  -2.2873  -2.2845
    -2.2301  -2.2294  -1.9977  -1.9883  -1.9740  -1.9705  -1.8418  -1.8302
    -1.5603  -1.5600  -1.4516  -1.4454  -1.3691  -1.3646  -1.2655  -1.2610
    -1.2022  -1.1946  -0.9971  -0.9965  -0.7868  -0.7817   0.2966   0.3014
     0.9502   0.9540   1.0758   1.0779   1.1524   1.1527   1.7524   1.7540
     1.9148   1.9156   2.1315   2.1337   2.1882   2.1899   2.6373   2.6378
     2.7479   2.7518   3.4829   3.5138

     the Fermi energy is    -0.0688 ev

!    total energy              =   -9109.88621988 Ry
     total all-electron energy =     -9109.886220 Ry
     estimated scf accuracy    <          6.5E-11 Ry
     smearing contrib. (-TS)   =      -0.00016478 Ry
     internal energy E=F+TS    =   -9109.88605510 Ry

     The total energy is F=E-TS. E is the sum of the following terms:
     one-electron contribution =  -16168.97346928 Ry
     hartree contribution      =    7942.42116452 Ry
     xc contribution           =    -364.81127853 Ry
     ewald contribution        =    5749.16328767 Ry
     one-center paw contrib.   =   -6267.68575947 Ry

     convergence has been achieved in  18 iterations

     negative rho (up, down):  6.560E-02 0.000E+00

     Forces acting on atoms (cartesian axes, Ry/au):

     atom    1 type  1   force =     0.00040226    0.00000000   -0.00040961
     atom    2 type  1   force =    -0.00061244    0.00000000   -0.00007014
     atom    3 type  1   force =    -0.00014586    0.00000000   -0.00041195
     atom    4 type  1   force =    -0.00059522    0.00000000    0.00019748
     atom    5 type  2   force =    -0.00075539    0.00000000    0.00064103
     atom    6 type  2   force =    -0.00034289    0.00000000    0.00026720
     atom    7 type  2   force =     0.00001821    0.00000000    0.00059590
     atom    8 type  2   force =     0.00040224    0.00000000    0.00072587
     atom    9 type  2   force =     0.00007204    0.00000000   -0.00008441
     atom   10 type  2   force =     0.00019592    0.00000000   -0.00070963
     atom   11 type  3   force =     0.00058248    0.00000000   -0.00056797
     atom   12 type  3   force =    -0.00020534    0.00000000   -0.00006911
     atom   13 type  3   force =     0.00070287    0.00000000   -0.00009072
     atom   14 type  3   force =     0.00001392    0.00000000   -0.00037307
     atom   15 type  3   force =     0.00004979    0.00000000    0.00001189
     atom   16 type  3   force =    -0.00099946    0.00000000    0.00020884
     atom   17 type  3   force =    -0.00025168    0.00000000    0.00011626
     atom   18 type  3   force =     0.00046466    0.00000000    0.00010471
     atom   19 type  3   force =     0.00065397    0.00000000    0.00045118
     atom   20 type  3   force =     0.00034991    0.00000000   -0.00053376

     Total force =     0.002793     Total SCF correction =     0.000040

     Computing stress (Cartesian axis) and pressure

     negative rho (up, down):  6.560E-02 0.000E+00
          total   stress  (Ry/bohr**3)                   (kbar)     P=       -4.84
  -0.00005211   0.00000000  -0.00000061           -7.67        0.00       -0.09
   0.00000000  -0.00000830   0.00000000            0.00       -1.22        0.00
  -0.00000061   0.00000000  -0.00003825           -0.09        0.00       -5.63

     Energy error            =      1.6E-05 Ry
     Gradient error          =      1.0E-03 Ry/Bohr

     bfgs converged in  18 scf cycles and  17 bfgs steps
     (criteria: energy <  1.0E-04 Ry, force <  1.0E-03 Ry/Bohr)

     End of BFGS Geometry Optimization

     Final energy             =   -9109.8862198808 Ry

     File /ddn/data/physics/eamoujaes/2D-Ta2Ni3Te5/ELASTIC/OUT/ta2ni3te5.bfgs deleted, as requested
Begin final coordinates

ATOMIC_POSITIONS (angstrom)
Ta              15.5246886151        0.9149235643       12.4278879177
Ta               6.5363363801        2.7447696811       12.6088335129
Ta               2.1650235267        0.9149235643       12.4346222263
Ta              11.1606288538        2.7447696811       12.6025879022
Ni              12.9550164050        0.9149235643       11.7566752241
Ni               3.9622638063        2.7447696811       13.2690874713
Ni               4.7377272956        0.9149235643       11.7674096115
Ni              13.7303494762        2.7447696811       13.2569124267
Ni               8.8451243714        0.9149235643       12.3525082000
Ni              -0.1517181637        2.7447696811       12.6954350108
Te              14.3265837470        2.7447696811       10.5366633161
Te               5.3351773647        0.9149235643       14.4948098971
Te              10.6506882606        0.9149235643       10.5372535348
Te               1.6636565653        2.7447696811       14.5026692251
Te               3.3630300169        2.7447696811       10.5453412827
Te              12.3680008792        0.9149235643       14.4867842791
Te               7.0353540042        0.9149235643       10.5401462909
Te              16.0229295767        2.7447696811       14.4964612763
Te              -0.1519087385        0.9149235643       10.8828961613
Te               8.8496101207        2.7447696811       14.1632662329
End final coordinates

     Writing all to output data dir /ddn/data/physics/eamoujaes/2D-Ta2Ni3Te5/ELASTIC/OUT/ta2ni3te5.save/ :
     XML data file, charge density, pseudopotentials, collected wavefunctions

     General routines
                                        2.03s GPU  (    5128 calls)
                                        0.05s GPU  (     378 calls)
                                      418.94s GPU  (  230318 calls)

     Parallel routines

   This run was terminated on:   0:19:34  29Jul2024

   JOB DONE.