     Program PWSCF v.7.3 starts on 29Jul2024 at  0:19:44

     Waiting for input...
     Reading input from standard input
Warning: card &CELL ignored
Warning: card CELL_DYNAMICS='BFGS' ignored
Warning: card PRESS=0.0 ignored
Warning: card CELL_DOFREE='2DXY' ignored
Warning: card / ignored

     Current dimensions of program PWSCF are:
     Max number of different atomic species (ntypx) = 10
     Max number of k-points (npk) =  40000
     Max angular momentum in pseudopotentials (lmaxx) =  4
read_pp_mesh; mismatch in mesh size, discarding the one in header
read_pp_mesh; mismatch in mesh size, discarding the one in header
read_pp_mesh; mismatch in mesh size, discarding the one in header
     Message from routine setup:
     using ibrav=0 with symmetry is DISCOURAGED, use correct ibrav instead

     Subspace diagonalization in iterative solution of the eigenvalue problem:
     a serial algorithm will be used

     Using Slab Decomposition

     bravais-lattice index     =            0
     lattice parameter (alat)  =      34.6691  a.u.
     unit-cell volume          =   11343.3916 (a.u.)^3
     number of atoms/cell      =           20
     number of atomic types    =            3
     number of electrons       =       220.00
     number of Kohn-Sham states=          132
     kinetic-energy cutoff     =      60.0000  Ry
     charge density cutoff     =     480.0000  Ry
     scf convergence threshold =      1.0E-08
     mixing beta               =       0.2000
     number of iterations used =            8  plain     mixing
     energy convergence thresh.=      1.0E-04
     force convergence thresh. =      1.0E-03
     Exchange-correlation= SLA PW PBX PBC
                           (   1   4   3   4   0   0   0)
     nstep                     =         2000

     celldm(1)=  34.669104  celldm(2)=   0.000000  celldm(3)=   0.000000
     celldm(4)=   0.000000  celldm(5)=   0.000000  celldm(6)=   0.000000

     crystal axes: (cart. coord. in units of alat)
               a(1) = (   1.000000   0.000000   0.000000 )
               a(2) = (   0.000000   0.199481   0.000000 )
               a(3) = (   0.000000   0.000000   1.364628 )

     reciprocal axes: (cart. coord. in units 2 pi/alat)
               b(1) = (  1.000000  0.000000  0.000000 )
               b(2) = (  0.000000  5.013017  0.000000 )
               b(3) = (  0.000000  0.000000  0.732800 )

     PseudoPot. # 1 for Ta read from file:
     /ddn/data/physics/eamoujaes/PSEUDO-CREATED/Ta.upf
     MD5 check sum: d865b2c2c09566b116f2b8decb2c153d
     Pseudo is Projector augmented-wave + core cor, Zval = 13.0
     Generated using ATOMPAW code
     Shape of augmentation charge: SINC**2
     Using radial grid of 2342 points,  6 beta functions with:
                l(1) =   0
                l(2) =   0
                l(3) =   1
                l(4) =   1
                l(5) =   2
                l(6) =   2
     Q(r) pseudized with 0 coefficients

     PseudoPot. # 2 for Ni read from file:
     /ddn/data/physics/eamoujaes/PSEUDO-CREATED/Ni.upf
     MD5 check sum: 85a2a5d9d38f4289a1cc30d5adb66a03
     Pseudo is Projector augmented-wave + core cor, Zval = 18.0
     Generated using ATOMPAW code
     Shape of augmentation charge: SINC**2
     Using radial grid of 2342 points,  6 beta functions with:
                l(1) =   0
                l(2) =   0
                l(3) =   1
                l(4) =   1
                l(5) =   2
                l(6) =   2
     Q(r) pseudized with 0 coefficients

     PseudoPot. # 3 for Te read from file:
     /ddn/data/physics/eamoujaes/PSEUDO-CREATED/Te.upf
     MD5 check sum: 8d958f193a7511a138982c2e72838810
     Pseudo is Projector augmented-wave + core cor, Zval =  6.0
     Generated using ATOMPAW code
     Shape of augmentation charge: SINC**2
     Using radial grid of 2342 points,  4 beta functions with:
                l(1) =   0
                l(2) =   0
                l(3) =   1
                l(4) =   1
     Q(r) pseudized with 0 coefficients

     atomic species   valence    mass     pseudopotential
     Ta               13.00   180.94790     Ta( 1.00)
     Ni               18.00    58.69340     Ni( 1.00)
     Te                6.00   127.60000     Te( 1.00)

      2 Sym. Ops. (no inversion) found ( 1 have fractional translation)

   Cartesian axes

     site n.     atom                  positions (alat units)
         1        Ta     tau(   1) = (   0.8389707   0.0498702   0.6782826  )
         2        Ta     tau(   2) = (   0.3581988   0.1496105   0.6863582  )
         3        Ta     tau(   3) = (   0.1234680   0.0498702   0.6782731  )
         4        Ta     tau(   4) = (   0.6042403   0.1496105   0.6863669  )
         5        Ni     tau(   5) = (   0.7012067   0.0498702   0.6411003  )
         6        Ni     tau(   6) = (   0.2204338   0.1496105   0.7235404  )
         7        Ni     tau(   7) = (   0.2612254   0.0498702   0.6410857  )
         8        Ni     tau(   8) = (   0.7419975   0.1496105   0.7235544  )
         9        Ni     tau(   9) = (   0.4812111   0.0498702   0.6741599  )
        10        Ni     tau(  10) = (   0.0004403   0.1496105   0.6904797  )
        11        Te     tau(  11) = (   0.7747174   0.1496105   0.5742505  )
        12        Te     tau(  12) = (   0.2939438   0.0498702   0.7903899  )
        13        Te     tau(  13) = (   0.5775305   0.0498702   0.5733826  )
        14        Te     tau(  14) = (   0.0967590   0.1496105   0.7912578  )
        15        Te     tau(  15) = (   0.1877069   0.1496105   0.5742383  )
        16        Te     tau(  16) = (   0.6684794   0.0498702   0.7904019  )
        17        Te     tau(  17) = (   0.3849111   0.0498702   0.5733737  )
        18        Te     tau(  18) = (   0.8656827   0.1496105   0.7912672  )
        19        Te     tau(  19) = (   0.0004524   0.0498702   0.5907315  )
        20        Te     tau(  20) = (   0.4812226   0.1496105   0.7739071  )

     number of k points=    12  Gaussian smearing, width (Ry)=  0.0020
                       cart. coord. in units 2pi/alat
        k(    1) = (   0.0000000   0.0000000   0.0000000), wk =   0.1000000
        k(    2) = (   0.0000000   0.5013017   0.0000000), wk =   0.2000000
        k(    3) = (   0.0000000   1.0026034   0.0000000), wk =   0.2000000
        k(    4) = (   0.0000000   1.5039052   0.0000000), wk =   0.2000000
        k(    5) = (   0.0000000   2.0052069   0.0000000), wk =   0.2000000
        k(    6) = (   0.0000000  -2.5065086   0.0000000), wk =   0.1000000
        k(    7) = (  -0.5000000   0.0000000   0.0000000), wk =   0.1000000
        k(    8) = (  -0.5000000   0.5013017   0.0000000), wk =   0.2000000
        k(    9) = (  -0.5000000   1.0026034   0.0000000), wk =   0.2000000
        k(   10) = (  -0.5000000   1.5039052   0.0000000), wk =   0.2000000
        k(   11) = (  -0.5000000   2.0052069   0.0000000), wk =   0.2000000
        k(   12) = (  -0.5000000  -2.5065086   0.0000000), wk =   0.1000000

     Initial potential from superposition of free atoms

     starting charge     219.9927, renormalised to     220.0000

     negative rho (up, down):  5.208E-02 0.000E+00
     Starting wfcs are  260 randomized atomic wfcs
     Checking if some PAW data can be deallocated...

     Self-consistent Calculation

     iteration #  1     ecut=    60.00 Ry     beta= 0.20
     Davidson diagonalization with overlap
     ethr =  1.00E-02,  avg # of iterations =  2.8

     negative rho (up, down):  5.257E-02 0.000E+00

     total energy              =   -9107.85708915 Ry
     estimated scf accuracy    <       7.90629210 Ry

[...]

     iteration # 11     ecut=    60.00 Ry     beta= 0.20
     Davidson diagonalization with overlap
     c_bands:  1 eigenvalues not converged
     c_bands:  1 eigenvalues not converged
     c_bands:  1 eigenvalues not converged
     c_bands:  1 eigenvalues not converged
     c_bands:  1 eigenvalues not converged
     ethr =  1.24E-05,  avg # of iterations = 15.6

[...]

     End of self-consistent calculation

          k = 0.0000 0.0000 0.0000 ( 89197 PWs)   bands (ev):

  -103.7220-103.6546-103.4870-103.4653-103.1385-102.8275 -69.2301 -68.8689
   -68.8051 -68.7973 -64.2775 -64.2203 -64.1445 -64.0553 -64.0481 -64.0450
   -63.9936 -63.9230 -63.8938 -63.8314 -63.7808 -63.7341 -63.6393 -63.6000
   -63.4230 -63.3243 -63.2148 -63.2076 -35.7313 -35.6073 -35.5855 -35.3460
   -35.3274 -35.2952 -35.2947 -35.2712 -35.2422 -35.2351 -35.2343 -35.2341
   -13.0921 -12.8782 -12.5687 -12.3307 -12.2159 -11.9890 -11.9407 -11.8524
   -11.6964 -11.6533  -6.3426  -6.1401  -5.8665  -5.7659  -5.6157  -5.4839
    -5.3103  -4.8318  -4.7517  -4.3719  -4.2308  -4.0724  -3.9704  -3.9512
    -3.8963  -3.8048  -3.7889  -3.5384  -3.5342  -3.3915  -3.3728  -3.1690
    -2.9780  -2.8562  -2.7696  -2.7553  -2.7482  -2.6238  -2.5146  -2.4063
    -2.3805  -2.3791  -2.2495  -2.1578  -2.1309  -2.0574  -1.9712  -1.9063
    -1.8321  -1.8170  -1.7638  -1.6116  -1.5191  -1.4933  -1.4482  -1.3769
    -1.3669  -1.2871  -1.2273  -1.1813  -1.1595  -1.0963  -0.9804  -0.8698
    -0.7980  -0.7677  -0.6718  -0.5427  -0.3195  -0.2043  -0.0705   0.1540
     0.4566   0.5418   0.9038   0.9653   1.0456   1.1043   1.2564   1.2753
     1.3134   1.6475   1.6945   2.0423   2.1549   2.2492   2.7152   2.9443
     3.0435   3.1814   3.2425   3.2459

[...]

          k =-0.5000 0.0000 0.0000 ( 89178 PWs)   bands (ev):

[...]

     the Fermi energy is    -0.1002 ev

!    total energy              =   -9109.80979745 Ry
     total all-electron energy =     -9109.809797 Ry
     estimated scf accuracy    <          9.8E-09 Ry
     smearing contrib. (-TS)   =      -0.00028169 Ry
     internal energy E=F+TS    =   -9109.80951575 Ry

     The total energy is F=E-TS. E is the sum of the following terms:
     one-electron contribution =  -15954.71603729 Ry
     hartree contribution      =    7834.53800062 Ry
     xc contribution           =    -364.67577641 Ry
     ewald contribution        =    5642.71202518 Ry
     one-center paw contrib.   =   -6267.66772785 Ry

     convergence has been achieved in  28 iterations

[...]

     Forces acting on atoms (cartesian axes, Ry/au):

     atom    1 type  1   force =     0.03372561    0.00000000    0.00006174
     atom    2 type  1   force =    -0.00263692    0.00000000   -0.00111338
     atom    3 type  1   force =    -0.01945382    0.00000000    0.00174739
     atom    4 type  1   force =    -0.01042145    0.00000000    0.00340613
     atom    5 type  2   force =     0.01060104    0.00000000    0.00143118
     atom    6 type  2   force =    -0.00084665    0.00000000   -0.00168097
     atom    7 type  2   force =     0.00051890    0.00000000   -0.00020920
     atom    8 type  2   force =     0.01322638    0.00000000   -0.00318000
     atom    9 type  2   force =     0.00298171    0.00000000    0.00129148
     atom   10 type  2   force =    -0.01565456    0.00000000   -0.00709546
     atom   11 type  3   force =     0.01383877    0.00000000   -0.00266011
     atom   12 type  3   force =     0.00039529    0.00000000    0.00020600
     atom   13 type  3   force =    -0.00027303    0.00000000   -0.00069706
     atom   14 type  3   force =    -0.01018848    0.00000000    0.00424444
     atom   15 type  3   force =     0.00294778    0.00000000   -0.00066519
     atom   16 type  3   force =    -0.00263288    0.00000000   -0.00021631
     atom   17 type  3   force =    -0.00117467    0.00000000   -0.00019973
     atom   18 type  3   force =     0.02605664    0.00000000   -0.02254400
     atom   19 type  3   force =    -0.04398908    0.00000000    0.02846623
     atom   20 type  3   force =     0.00297942    0.00000000   -0.00059319

     Total force =     0.080852     Total SCF correction =     0.000384

     Computing stress (Cartesian axis) and pressure

     negative rho (up, down):  6.501E-02 0.000E+00
          total   stress  (Ry/bohr**3)                   (kbar)     P=       -6.16
  -0.00005520   0.00000000   0.00001200           -8.12        0.00        1.76
   0.00000000  -0.00001942   0.00000000            0.00       -2.86        0.00
   0.00001200   0.00000000  -0.00005109            1.76        0.00       -7.52

     BFGS Geometry Optimization
     Energy error            =      0.0E+00 Ry
     Gradient error          =      4.4E-02 Ry/Bohr

     number of scf cycles    =   1
     number of bfgs steps    =   0

     energy             new  =   -9109.8097974459 Ry

     new trust radius        =       0.0523962290 bohr
     new conv_thr            =       0.0000000100 Ry

ATOMIC_POSITIONS (angstrom)
Ta              15.4096876492        0.9149235643       12.4438729031
Ta               6.5701551163        2.7447696811       12.5914071595
Ta               2.2548610965        0.9149235643       12.4445906423
Ta              11.0799385549        2.7447696811       12.5939589353
Ni              12.8700179862        0.9149235643       11.7624469454
Ni               4.0436520970        2.7447696811       13.2732544183
Ni               4.7927413143        0.9149235643       11.7613122544
Ni              13.6197597139        2.7447696811       13.2727182227
Ni               8.8299245164        0.9149235643       12.3688890197
Ni              -0.0002071351        2.7447696811       12.6638550554
Te              14.2203655368        2.7447696811       10.5338490839
Te               5.3929310356        0.9149235643       14.5006811139
Te              10.5952886347        0.9149235643       10.5189650053
Te               1.7697585711        2.7447696811       14.5187410188
Te               3.4452485892        2.7447696811       10.5346815403
Te              12.2625962774        0.9149235643       14.5006780821
Te               7.0609968127        0.9149235643       10.5190655798
Te              15.8956904858        2.7447696811       14.5047373574
Te              -0.0149790932        0.9149235643       10.8526827440
Te               8.8301346037        2.7447696811       14.1978639181

     Writing config-only to output data dir /ddn/data/physics/eamoujaes/2D-Ta2Ni3Te5/ELASTIC/OUT/ta2ni3te5.save/ :
     XML data file
     NEW-OLD atomic charge density approx. for the potential

[...]

     Energy error            =      6.3E-03 Ry
     Gradient error          =      4.3E-02 Ry/Bohr

[...]

     energy             old  =   -9109.8097974459 Ry
     energy             new  =   -9109.8160501047 Ry

     CASE: energy            _new < energy            _old

     WARNING: bfgs curvature condition failed, Theta= 0.878
     new trust radius        =       0.0576358519 bohr
     new conv_thr            =       0.0000000043 Ry

[...]

     iteration #  2     ecut=    60.00 Ry     beta= 0.20
     Davidson diagonalization with overlap
     c_bands:  1 eigenvalues not converged
     ethr =  5.16E-06,  avg # of iterations = 10.3

[...]

     Threshold (ethr) on eigenvalues was too large:
     Diagonalizing with lowered threshold

     Davidson diagonalization with overlap
     ethr =  6.94E-08,  avg # of iterations =  3.9

[...]

     number of scf cycles    =  25
     number of bfgs steps    =  24

     energy             old  =   -9109.8780918160 Ry
     energy             new  =   -9109.8781066605 Ry

     CASE: energy            _new < energy            _old

     new trust radius        =       0.0043971732 bohr
     new conv_thr            =            1.0E-10 Ry

ATOMIC_POSITIONS (angstrom)
Ta              15.6669835822        0.9149235643       12.4098907578
Ta               6.4955630304        2.7447696811       12.6243065598
Ta               2.0622277766        0.9149235643       12.4235727691
Ta              11.2324796855        2.7447696811       12.6142731817
Ni              13.0462130255        0.9149235643       11.7622047391
Ni               3.8757734212        2.7447696811       13.2666864168
Ni               4.6782025931        0.9149235643       11.7783783339
Ni              13.8481739324        2.7447696811       13.2510079018
Ni               8.8624331760        0.9149235643       12.3307165891
Ni              -0.3072725383        2.7447696811       12.7137320831
Te              14.4475868504        2.7447696811       10.5403847701
Te               5.2703204789        0.9149235643       14.4897663081
Te              10.7196374341        0.9149235643       10.5524657715
Te               1.5513829843        2.7447696811       14.4865706027
Te               3.2840126640        2.7447696811       10.5545479636
Te              12.4607305270        0.9149235643       14.4789663626
Te               7.0017820652        0.9149235643       10.5604639637
Te              16.1693414012        2.7447696811       14.4753099083
Te              -0.3047113438        0.9149235643       10.9208782521
Te               8.8677016176        2.7447696811       14.1241277647

     Writing config-only to output data dir /ddn/data/physics/eamoujaes/2D-Ta2Ni3Te5/ELASTIC/OUT/ta2ni3te5.save/ :
     XML data file
     NEW-OLD atomic charge density approx. for the potential

[...]

     Self-consistent Calculation

[...]

     Threshold (ethr) on eigenvalues was too large:
     Diagonalizing with lowered threshold

     Davidson diagonalization with overlap
     ethr =  3.81E-09,  avg # of iterations =  5.0

[...]

     total energy              =   -9109.87811546 Ry
     estimated scf accuracy    <          1.6E-10 Ry

     iteration # 18     ecut=    60.00 Ry     beta= 0.20
     Davidson diagonalization with overlap
     ethr =  1.00E-13,  avg # of iterations =  2.0

[...]

     End of self-consistent calculation

[...]

          k = 0.0000-2.5065 0.0000 ( 88770 PWs)   bands (ev):

[...]

          k =-0.5000-2.5065 0.0000 ( 88788 PWs)   bands (ev):

  -103.4524-103.4484-103.4477-103.4404-103.0940-103.0917 -68.9593 -68.9588
   -68.9570 -68.9568 -64.0306 -64.0263 -64.0261 -64.0187 -63.8541 -63.8521
   -63.8502 -63.8443 -63.7121 -63.7080 -63.7077 -63.7004 -63.5982 -63.5973
   -63.5629 -63.5602 -63.3701 -63.3668 -35.4482 -35.4480 -35.4463 -35.4461
   -35.4172 -35.4165 -35.4153 -35.4152 -35.3799 -35.3798 -35.3771 -35.3769
   -11.5720 -11.5677 -11.5082 -11.5044 -11.4902 -11.4860 -11.3652 -11.3616
   -11.2235 -11.2227  -6.4164  -6.4133  -6.2255  -6.2195  -5.5908  -5.5893
    -5.0999  -5.0988  -4.9799  -4.9758  -4.1961  -4.1940  -4.1380  -4.1348
    -3.9165  -3.9139  -3.6982  -3.6936  -3.6931  -3.6904  -3.5921  -3.5889
    -3.5415  -3.5385  -3.3509  -3.3505  -3.1188  -3.1159  -3.1065  -3.1048
    -2.7978  -2.7951  -2.6210  -2.6207  -2.4026  -2.4020  -2.3199  -2.3169
    -2.2995  -2.2988  -2.1024  -2.0954  -2.0037  -2.0018  -1.8761  -1.8684
    -1.5932  -1.5932  -1.5214  -1.5165  -1.4037  -1.4025  -1.3400  -1.3379
    -1.2481  -1.2456  -1.0587  -1.0575  -0.8501  -0.8474   0.2391   0.2433
     0.7825   0.7861   1.0090   1.0100   1.0238   1.0248   1.6272   1.6321
     1.7592   1.7633   2.0140   2.0153   2.0503   2.0504   2.5368   2.5388
     2.6160   2.6212   3.3920   3.4284

     the Fermi energy is    -0.1665 ev

!    total energy              =   -9109.87811546 Ry
     total all-electron energy =     -9109.878115 Ry
     estimated scf accuracy    <          6.2E-11 Ry
     smearing contrib. (-TS)   =      -0.00022849 Ry
     internal energy E=F+TS    =   -9109.87788696 Ry

     The total energy is F=E-TS. E is the sum of the following terms:
     one-electron contribution =  -15944.69986770 Ry
     hartree contribution      =    7829.62875454 Ry
     xc contribution           =    -364.68048603 Ry
     ewald contribution        =    5637.52939458 Ry
     one-center paw contrib.   =   -6267.65568235 Ry

     convergence has been achieved in  18 iterations

     negative rho (up, down):  6.555E-02 0.000E+00

     Forces acting on atoms (cartesian axes, Ry/au):

     atom    1 type  1   force =    -0.00061169    0.00000000    0.00036425
     atom    2 type  1   force =    -0.00011215    0.00000000   -0.00001637
     atom    3 type  1   force =     0.00005785    0.00000000   -0.00012349
     atom    4 type  1   force =     0.00005953    0.00000000    0.00001873
     atom    5 type  2   force =     0.00057282    0.00000000    0.00046353
     atom    6 type  2   force =     0.00015810    0.00000000   -0.00001838
     atom    7 type  2   force =     0.00015751    0.00000000    0.00015777
     atom    8 type  2   force =     0.00065671    0.00000000   -0.00003999
     atom    9 type  2   force =     0.00036640    0.00000000   -0.00039026
     atom   10 type  2   force =    -0.00027734    0.00000000    0.00005629
     atom   11 type  3   force =    -0.00049778    0.00000000    0.00043673
     atom   12 type  3   force =     0.00010835    0.00000000    0.00027130
     atom   13 type  3   force =    -0.00029272    0.00000000    0.00000280
     atom   14 type  3   force =    -0.00013948    0.00000000   -0.00006125
     atom   15 type  3   force =     0.00012438    0.00000000    0.00012519
     atom   16 type  3   force =    -0.00024635    0.00000000   -0.00011018
     atom   17 type  3   force =    -0.00001722    0.00000000   -0.00009660
     atom   18 type  3   force =     0.00035373    0.00000000   -0.00008358
     atom   19 type  3   force =    -0.00009887    0.00000000   -0.00058120
     atom   20 type  3   force =    -0.00032179    0.00000000   -0.00037528

     Total force =     0.001852     Total SCF correction =     0.000044

     Computing stress (Cartesian axis) and pressure

     negative rho (up, down):  6.555E-02 0.000E+00
          total   stress  (Ry/bohr**3)                   (kbar)     P=       -7.45
  -0.00009784   0.00000000   0.00000016          -14.39        0.00        0.02
   0.00000000  -0.00001655   0.00000000            0.00       -2.44        0.00
   0.00000016   0.00000000  -0.00003750            0.02        0.00       -5.52

     Energy error            =      8.8E-06 Ry
     Gradient error          =      6.6E-04 Ry/Bohr

     bfgs converged in  26 scf cycles and  25 bfgs steps
     (criteria: energy <  1.0E-04 Ry, force <  1.0E-03 Ry/Bohr)

     End of BFGS Geometry Optimization

     Final energy             =   -9109.8781154575 Ry

     File /ddn/data/physics/eamoujaes/2D-Ta2Ni3Te5/ELASTIC/OUT/ta2ni3te5.bfgs deleted, as requested
Begin final coordinates

ATOMIC_POSITIONS (angstrom)
Ta              15.6669835822        0.9149235643       12.4098907578
Ta               6.4955630304        2.7447696811       12.6243065598
Ta               2.0622277766        0.9149235643       12.4235727691
Ta              11.2324796855        2.7447696811       12.6142731817
Ni              13.0462130255        0.9149235643       11.7622047391
Ni               3.8757734212        2.7447696811       13.2666864168
Ni               4.6782025931        0.9149235643       11.7783783339
Ni              13.8481739324        2.7447696811       13.2510079018
Ni               8.8624331760        0.9149235643       12.3307165891
Ni              -0.3072725383        2.7447696811       12.7137320831
Te              14.4475868504        2.7447696811       10.5403847701
Te               5.2703204789        0.9149235643       14.4897663081
Te              10.7196374341        0.9149235643       10.5524657715
Te               1.5513829843        2.7447696811       14.4865706027
Te               3.2840126640        2.7447696811       10.5545479636
Te              12.4607305270        0.9149235643       14.4789663626
Te               7.0017820652        0.9149235643       10.5604639637
Te              16.1693414012        2.7447696811       14.4753099083
Te              -0.3047113438        0.9149235643       10.9208782521
Te               8.8677016176        2.7447696811       14.1241277647
End final coordinates

     Writing all to output data dir /ddn/data/physics/eamoujaes/2D-Ta2Ni3Te5/ELASTIC/OUT/ta2ni3te5.save/ :
     XML data file, charge density, pseudopotentials, collected wavefunctions

     General routines
                                        3.03s GPU  (    7649 calls)
                                        0.08s GPU  (     565 calls)
                                      627.91s GPU  (  344744 calls)

     Parallel routines

   This run was terminated on:   7: 6:35  29Jul2024

   JOB DONE.