     Program PWSCF v.7.3 starts on 29Jul2024 at  7: 6:50

     Waiting for input...
     Reading input from standard input
Warning: card &CELL ignored
Warning: card CELL_DYNAMICS='BFGS' ignored
Warning: card PRESS=0.0 ignored
Warning: card CELL_DOFREE='2DXY' ignored
Warning: card / ignored

     Current dimensions of program PWSCF are:
     Max number of different atomic species (ntypx) = 10
     Max number of k-points (npk) =  40000
     Max angular momentum in pseudopotentials (lmaxx) =  4
read_pp_mesh; mismatch in mesh size, discarding the one in header
read_pp_mesh; mismatch in mesh size, discarding the one in header
read_pp_mesh; mismatch in mesh size, discarding the one in header
     Message from routine setup:
     using ibrav=0 with symmetry is DISCOURAGED, use correct ibrav instead

     Subspace diagonalization in iterative solution of the eigenvalue problem:
     a serial algorithm will be used

     Using Slab Decomposition

     bravais-lattice index     =            0
     lattice parameter (alat)  =      35.3360  a.u.
     unit-cell volume          =   11561.5896 (a.u.)^3
     number of atoms/cell      =           20
     number of atomic types    =            3
     number of electrons       =       220.00
     number of Kohn-Sham states=          132
     kinetic-energy cutoff     =      60.0000  Ry
     charge density cutoff     =     480.0000  Ry
     scf convergence threshold =      1.0E-08
     mixing beta               =       0.2000
     number of iterations used =            8  plain     mixing
     energy convergence thresh.=      1.0E-04
     force convergence thresh. =      1.0E-03
     Exchange-correlation= SLA PW PBX PBC
                           (   1   4   3   4   0   0   0)
     nstep                     =         2000

     celldm(1)=  35.335989  celldm(2)=   0.000000  celldm(3)=   0.000000
     celldm(4)=   0.000000  celldm(5)=   0.000000  celldm(6)=   0.000000

     crystal axes: (cart. coord. in units of alat)
               a(1) = (   1.000000   0.000000   0.000000 )
               a(2) = (   0.000000   0.195716   0.000000 )
               a(3) = (   0.000000   0.000000   1.338874 )

     reciprocal axes: (cart. coord. in units 2 pi/alat)
               b(1) = (  1.000000  0.000000  0.000000 )
               b(2) = (  0.000000  5.109446  0.000000 )
               b(3) = (  0.000000  0.000000  0.746896 )

     PseudoPot. # 1 for Ta read from file:
     /ddn/data/physics/eamoujaes/PSEUDO-CREATED/Ta.upf
     MD5 check sum: d865b2c2c09566b116f2b8decb2c153d
     Pseudo is Projector augmented-wave + core cor, Zval = 13.0
     Generated using ATOMPAW code
     Shape of augmentation charge: SINC**2
     Using radial grid of 2342 points,  6 beta functions with:
                l(1) =   0
                l(2) =   0
                l(3) =   1
                l(4) =   1
                l(5) =   2
                l(6) =   2
     Q(r) pseudized with 0 coefficients

     PseudoPot. # 2 for Ni read from file:
     /ddn/data/physics/eamoujaes/PSEUDO-CREATED/Ni.upf
     MD5 check sum: 85a2a5d9d38f4289a1cc30d5adb66a03
     Pseudo is Projector augmented-wave + core cor, Zval = 18.0
     Generated using ATOMPAW code
     Shape of augmentation charge: SINC**2
     Using radial grid of 2342 points,  6 beta functions with:
                l(1) =   0
                l(2) =   0
                l(3) =   1
                l(4) =   1
                l(5) =   2
                l(6) =   2
     Q(r) pseudized with 0 coefficients

     PseudoPot. # 3 for Te read from file:
     /ddn/data/physics/eamoujaes/PSEUDO-CREATED/Te.upf
     MD5 check sum: 8d958f193a7511a138982c2e72838810
     Pseudo is Projector augmented-wave + core cor, Zval =  6.0
     Generated using ATOMPAW code
     Shape of augmentation charge: SINC**2
     Using radial grid of 2342 points,  4 beta functions with:
                l(1) =   0
                l(2) =   0
                l(3) =   1
                l(4) =   1
     Q(r) pseudized with 0 coefficients

     atomic species   valence    mass     pseudopotential
     Ta               13.00   180.94790     Ta( 1.00)
     Ni               18.00    58.69340     Ni( 1.00)
     Te                6.00   127.60000     Te( 1.00)

      2 Sym. Ops. (no inversion) found ( 1 have fractional translation)

   Cartesian axes

     site n.     atom                  positions (alat units)
         1        Ta     tau(   1) = (   0.8231371   0.0489290   0.6654816  )
         2        Ta     tau(   2) = (   0.3514386   0.1467870   0.6734048  )
         3        Ta     tau(   3) = (   0.1211378   0.0489290   0.6654723  )
         4        Ta     tau(   4) = (   0.5928367   0.1467870   0.6734134  )
         5        Ni     tau(   5) = (   0.6879731   0.0489290   0.6290010  )
         6        Ni     tau(   6) = (   0.2162736   0.1467870   0.7098852  )
         7        Ni     tau(   7) = (   0.2562953   0.0489290   0.6289867  )
         8        Ni     tau(   8) = (   0.7279940   0.1467870   0.7098990  )
         9        Ni     tau(   9) = (   0.4721293   0.0489290   0.6614367  )
        10        Ni     tau(  10) = (   0.0004319   0.1467870   0.6774485  )
        11        Te     tau(  11) = (   0.7600964   0.1467870   0.5634128  )
        12        Te     tau(  12) = (   0.2883963   0.0489290   0.7754731  )
        13        Te     tau(  13) = (   0.5666310   0.0489290   0.5625613  )
        14        Te     tau(  14) = (   0.0949329   0.1467870   0.7763247  )
        15        Te     tau(  15) = (   0.1841643   0.1467870   0.5634009  )
        16        Te     tau(  16) = (   0.6558634   0.0489290   0.7754849  )
        17        Te     tau(  17) = (   0.3776468   0.0489290   0.5625526  )
        18        Te     tau(  18) = (   0.8493450   0.1467870   0.7763339  )
        19        Te     tau(  19) = (   0.0004438   0.0489290   0.5795828  )
        20        Te     tau(  20) = (   0.4721406   0.1467870   0.7593015  )

     number of k points=    12  Gaussian smearing, width (Ry)=  0.0020
                       cart. coord. in units 2pi/alat
        k(    1) = (   0.0000000   0.0000000   0.0000000), wk =   0.1000000
        k(    2) = (   0.0000000   0.5109446   0.0000000), wk =   0.2000000
        k(    3) = (   0.0000000   1.0218892   0.0000000), wk =   0.2000000
        k(    4) = (   0.0000000   1.5328338   0.0000000), wk =   0.2000000
        k(    5) = (   0.0000000   2.0437784   0.0000000), wk =   0.2000000
        k(    6) = (   0.0000000  -2.5547230   0.0000000), wk =   0.1000000
        k(    7) = (  -0.5000000   0.0000000   0.0000000), wk =   0.1000000
        k(    8) = (  -0.5000000   0.5109446   0.0000000), wk =   0.2000000
        k(    9) = (  -0.5000000   1.0218892   0.0000000), wk =   0.2000000
        k(   10) = (  -0.5000000   1.5328338   0.0000000), wk =   0.2000000
        k(   11) = (  -0.5000000   2.0437784   0.0000000), wk =   0.2000000
        k(   12) = (  -0.5000000  -2.5547230   0.0000000), wk =   0.1000000

     Initial potential from superposition of free atoms

     starting charge     219.9927, renormalised to     220.0000

     negative rho (up, down):  5.224E-02 0.000E+00
     Starting wfcs are  260 randomized atomic wfcs
     Checking if some PAW data can be deallocated...

     Self-consistent Calculation

     iteration #  1     ecut=    60.00 Ry     beta= 0.20
     Davidson diagonalization with overlap
     ethr =  1.00E-02,  avg # of iterations =  2.9

     negative rho (up, down):  5.276E-02 0.000E+00

     total energy              =   -9107.76512821 Ry
     estimated scf accuracy    <       8.09361333 Ry

[...]

     iteration # 11     ecut=    60.00 Ry     beta= 0.20
     Davidson diagonalization with overlap
     c_bands:  1 eigenvalues not converged
     c_bands:  2 eigenvalues not converged
     c_bands:  1 eigenvalues not converged
     c_bands:  1 eigenvalues not converged
     c_bands:  1 eigenvalues not converged
     ethr =  8.00E-06,  avg # of iterations = 15.7

[...]

     End of self-consistent calculation

          k = 0.0000 0.0000 0.0000 ( 90895 PWs)   bands (ev):

  -103.8573-103.7767-103.5540-103.5234-103.2199-102.8198 -69.3868 -68.9472
   -68.8788 -68.8460 -64.4046 -64.3419 -64.2856 -64.1745 -64.1265 -64.1191
   -64.1031 -64.0438 -63.9594 -63.8933 -63.8480 -63.7937 -63.7209 -63.6777
   -63.5081 -63.3150 -63.2526 -63.1660 -35.9200 -35.7513 -35.7248 -35.4242
   -35.4072 -35.3756 -35.3675 -35.3151 -35.3127 -35.3103 -35.2871 -35.2859
   -13.1815 -12.9622 -12.6347 -12.4262 -12.2892 -12.0677 -12.0163 -11.8866
   -11.7374 -11.6984  -6.4392  -6.2188  -5.9422  -5.8349  -5.6987  -5.5313
    -5.3247  -4.9093  -4.7788  -4.4520  -4.2699  -4.1653  -4.0912  -4.0318
    -3.9687  -3.8640  -3.8531  -3.6520  -3.5739  -3.4551  -3.4366  -3.2311
    -3.0836  -2.9567  -2.8378  -2.8105  -2.8029  -2.7113  -2.6124  -2.4881
    -2.4577  -2.4377  -2.3365  -2.2647  -2.1789  -2.1408  -2.0360  -1.9619
    -1.8976  -1.8295  -1.8261  -1.7248  -1.5966  -1.5367  -1.5233  -1.4467
    -1.4425  -1.3919  -1.2930  -1.2673  -1.2429  -1.1626  -1.0379  -0.9533
    -0.8430  -0.8355  -0.7579  -0.6201  -0.3898  -0.3042  -0.1454   0.1770
     0.2336   0.4172   0.7964   0.9031   0.9367   1.0132   1.1038   1.1706
     1.2288   1.5345   1.5580   1.9881   2.0772   2.1182   2.4687   2.8385
     2.9367   3.0729   3.1020   3.1804

[...]

          k =-0.5000 0.0000 0.0000 ( 90892 PWs)   bands (ev):

[...]

     the Fermi energy is    -0.1725 ev

!    total energy              =   -9109.76432272 Ry
     total all-electron energy =     -9109.764323 Ry
     estimated scf accuracy    <          7.9E-09 Ry
     smearing contrib. (-TS)   =      -0.00018927 Ry
     internal energy E=F+TS    =   -9109.76413344 Ry

     The total energy is F=E-TS. E is the sum of the following terms:
     one-electron contribution =  -15777.47125906 Ry
     hartree contribution      =    7745.27833249 Ry
     xc contribution           =    -364.62973301 Ry
     ewald contribution        =    5554.71862182 Ry
     one-center paw contrib.   =   -6267.66009568 Ry

     convergence has been achieved in  28 iterations

[...]

     Forces acting on atoms (cartesian axes, Ry/au):

     atom    1 type  1   force =     0.01852161    0.00000000    0.01179852
     atom    2 type  1   force =    -0.00316577    0.00000000   -0.00112035
     atom    3 type  1   force =    -0.02493623    0.00000000    0.00185914
     atom    4 type  1   force =    -0.01285762    0.00000000    0.00417373
     atom    5 type  2   force =     0.01301306    0.00000000    0.00246950
     atom    6 type  2   force =    -0.00044886    0.00000000   -0.00224358
     atom    7 type  2   force =     0.00061783    0.00000000   -0.00078629
     atom    8 type  2   force =     0.01621987    0.00000000   -0.00300219
     atom    9 type  2   force =     0.00355106    0.00000000    0.00195386
     atom   10 type  2   force =    -0.00070674    0.00000000   -0.01895193
     atom   11 type  3   force =     0.01679286    0.00000000   -0.00392635
     atom   12 type  3   force =     0.00059310    0.00000000    0.00011737
     atom   13 type  3   force =    -0.00019315    0.00000000   -0.00083475
     atom   14 type  3   force =    -0.01110201    0.00000000    0.00602319
     atom   15 type  3   force =     0.00378093    0.00000000   -0.00036967
     atom   16 type  3   force =    -0.00382994    0.00000000   -0.00049985
     atom   17 type  3   force =    -0.00159764    0.00000000   -0.00041977
     atom   18 type  3   force =     0.02064858    0.00000000   -0.02403983
     atom   19 type  3   force =    -0.03813597    0.00000000    0.02856369
     atom   20 type  3   force =     0.00323503    0.00000000   -0.00076444

     Total force =     0.076858     Total SCF correction =     0.000324

     Computing stress (Cartesian axis) and pressure

     negative rho (up, down):  6.531E-02 0.000E+00
          total   stress  (Ry/bohr**3)                   (kbar)     P=       -6.29
  -0.00005332   0.00000000   0.00000740           -7.84        0.00        1.09
   0.00000000  -0.00002420   0.00000000            0.00       -3.56        0.00
   0.00000740   0.00000000  -0.00005069            1.09        0.00       -7.46

     BFGS Geometry Optimization
     Energy error            =      0.0E+00 Ry
     Gradient error          =      3.8E-02 Ry/Bohr

     number of scf cycles    =   1
     number of bfgs steps    =   0

     energy             new  =   -9109.7643227162 Ry

     new trust radius        =       0.0476469992 bohr
     new conv_thr            =       0.0000000100 Ry

ATOMIC_POSITIONS (angstrom)
Ta              15.4016420383        0.9149235643       12.4500837398
Ta               6.5698752622        2.7447696811       12.5914034725
Ta               2.2519599285        0.9149235643       12.4446497755
Ta              11.0786493897        2.7447696811       12.5943651302
Ni              12.8712943730        0.9149235643       11.7629963962
Ni               4.0438625984        2.7447696811       13.2729566991
Ni               4.7927936666        0.9149235643       11.7610068730
Ni              13.6213437978        2.7447696811       13.2728123158
Ni               8.8302258063        0.9149235643       12.3692395352
Ni               0.0077029100        2.7447696811       12.6575808826
Te              14.2219287748        2.7447696811       10.5331790182
Te               5.3930357112        0.9149235643       14.5006342152
Te              10.5953309080        0.9149235643       10.5188921464
Te               1.7692751531        2.7447696811       14.5196822910
Te               3.4456894741        2.7447696811       10.5348379219
Te              12.2619628213        0.9149235643       14.5005280373
Te               7.0607729846        0.9149235643       10.5189491402
Te              15.8928286638        2.7447696811       14.5039457986
Te              -0.0118817632        0.9149235643       10.8527343187
Te               8.8302698647        2.7447696811       14.1977732923

     Writing config-only to output data dir /ddn/data/physics/eamoujaes/2D-Ta2Ni3Te5/ELASTIC/OUT/ta2ni3te5.save/ :
     XML data file
     NEW-OLD atomic charge density approx. for the potential

[...]

     Energy error            =      5.5E-03 Ry
     Gradient error          =      3.8E-02 Ry/Bohr

[...]

     energy             old  =   -9109.7643227162 Ry
     energy             new  =   -9109.7698263583 Ry

     CASE: energy            _new < energy            _old

     WARNING: bfgs curvature condition failed, Theta= 0.929
     new trust radius        =       0.0524116991 bohr
     new conv_thr            =       0.0000000038 Ry

[...]

     iteration #  1     ecut=    60.00 Ry     beta= 0.20
     Davidson diagonalization with overlap
     c_bands:  2 eigenvalues not converged
     c_bands:  1 eigenvalues not converged
     ethr =  1.00E-06,  avg # of iterations = 13.5

[...]

     Threshold (ethr) on eigenvalues was too large:
     Diagonalizing with lowered threshold

     Davidson diagonalization with overlap
     ethr =  4.14E-08,  avg # of iterations =  4.2

[...]

     number of scf cycles    =  32
     number of bfgs steps    =  31

     energy             old  =   -9109.8605441229 Ry
     energy             new  =   -9109.8605545875 Ry

     CASE: energy            _new < energy            _old

     new trust radius        =       0.0031102056 bohr
     new conv_thr            =            1.0E-10 Ry

ATOMIC_POSITIONS (angstrom)
Ta              15.8072669674        0.9149235643       12.3976514132
Ta               6.4551661054        2.7447696811       12.6357393090
Ta               1.9558970401        0.9149235643       12.4149797640
Ta              11.3055326555        2.7447696811       12.6242364705
Ni              13.1425206656        0.9149235643       11.7668497061
Ni               3.7936440824        2.7447696811       13.2660184444
Ni               4.6185315408        0.9149235643       11.7899933410
Ni              13.9677827451        2.7447696811       13.2435739226
Ni               8.8765693484        0.9149235643       12.3060087353
Ni              -0.4630693808        2.7447696811       12.7337192918
Te              14.5609690026        2.7447696811       10.5450520084
Te               5.2082863033        0.9149235643       14.4869177241
Te              10.7866167386        0.9149235643       10.5675661509
Te               1.4432333323        2.7447696811       14.4741856793
Te               3.2095727476        2.7447696811       10.5688843304
Te              12.5601868207        0.9149235643       14.4686280158
Te               6.9623166462        0.9149235643       10.5749886927
Te              16.3154765351        2.7447696811       14.4559274857
Te              -0.4612522868        0.9149235643       10.9526757769
Te               8.8833147539        2.7447696811       14.0846547377

     Writing config-only to output data dir /ddn/data/physics/eamoujaes/2D-Ta2Ni3Te5/ELASTIC/OUT/ta2ni3te5.save/ :
     XML data file
     NEW-OLD atomic charge density approx. for the potential

[...]

     Self-consistent Calculation

[...]

     Threshold (ethr) on eigenvalues was too large:
     Diagonalizing with lowered threshold

     Davidson diagonalization with overlap
     ethr =  6.42E-09,  avg # of iterations =  5.0

[...]

     total energy              =   -9109.86056281 Ry
     estimated scf accuracy    <          1.1E-10 Ry

     iteration # 19     ecut=    60.00 Ry     beta= 0.20
     Davidson diagonalization with overlap
     ethr =  1.00E-13,  avg # of iterations =  1.0

[...]

     End of self-consistent calculation

[...]

          k = 0.0000-2.5547 0.0000 ( 90506 PWs)   bands (ev):

[...]

          k =-0.5000-2.5547 0.0000 ( 90512 PWs)   bands (ev):

  -103.4941-103.4932-103.4871-103.4817-103.1598-103.1597 -69.0847 -69.0833
   -69.0831 -69.0819 -64.0653 -64.0644 -64.0585 -64.0529 -63.9078 -63.9069
   -63.9009 -63.8964 -63.7505 -63.7491 -63.7445 -63.7387 -63.6541 -63.6527
   -63.6345 -63.6339 -63.4441 -63.4429 -35.5665 -35.5653 -35.5647 -35.5635
   -35.5341 -35.5332 -35.5320 -35.5313 -35.5013 -35.5004 -35.4997 -35.4995
   -11.6137 -11.6137 -11.5914 -11.5895 -11.5586 -11.5577 -11.4400 -11.4392
   -11.3045 -11.3025  -6.4663  -6.4649  -6.2936  -6.2911  -5.6483  -5.6481
    -5.1386  -5.1375  -5.0375  -5.0351  -4.2508  -4.2500  -4.1681  -4.1681
    -3.9616  -3.9602  -3.7861  -3.7858  -3.7200  -3.7198  -3.6301  -3.6281
    -3.6005  -3.5988  -3.4048  -3.4045  -3.2309  -3.2306  -3.2031  -3.2016
    -2.8294  -2.8288  -2.6962  -2.6953  -2.4516  -2.4513  -2.3741  -2.3741
    -2.3397  -2.3387  -2.2038  -2.2002  -2.0324  -2.0317  -1.9081  -1.9051
    -1.6294  -1.6279  -1.5887  -1.5864  -1.4513  -1.4507  -1.4151  -1.4143
    -1.2992  -1.2982  -1.1196  -1.1192  -0.9101  -0.9095   0.1781   0.1786
     0.6270   0.6280   0.8693   0.8699   0.9517   0.9523   1.5136   1.5152
     1.6039   1.6044   1.9028   1.9036   1.9246   1.9251   2.4442   2.4446
     2.4913   2.4931   3.2910   3.3266

     the Fermi energy is    -0.2393 ev

!    total energy              =   -9109.86056281 Ry
     total all-electron energy =     -9109.860563 Ry
     estimated scf accuracy    <          8.7E-11 Ry
     smearing contrib. (-TS)   =      -0.00021505 Ry
     internal energy E=F+TS    =   -9109.86034776 Ry

     The total energy is F=E-TS. E is the sum of the following terms:
     one-electron contribution =  -15728.31022671 Ry
     hartree contribution      =    7720.78515421 Ry
     xc contribution           =    -364.55493136 Ry
     ewald contribution        =    5529.84365558 Ry
     one-center paw contrib.   =   -6267.62399947 Ry

     convergence has been achieved in  19 iterations

     negative rho (up, down):  6.564E-02 0.000E+00

     Forces acting on atoms (cartesian axes, Ry/au):

     atom    1 type  1   force =    -0.00040946    0.00000000   -0.00059774
     atom    2 type  1   force =     0.00024153    0.00000000   -0.00011224
     atom    3 type  1   force =     0.00025059    0.00000000    0.00035982
     atom    4 type  1   force =    -0.00017949    0.00000000   -0.00039927
     atom    5 type  2   force =     0.00013552    0.00000000    0.00020800
     atom    6 type  2   force =    -0.00015318    0.00000000    0.00021938
     atom    7 type  2   force =     0.00001371    0.00000000   -0.00000115
     atom    8 type  2   force =     0.00030500    0.00000000   -0.00006110
     atom    9 type  2   force =     0.00020895    0.00000000   -0.00017446
     atom   10 type  2   force =    -0.00011793    0.00000000   -0.00050765
     atom   11 type  3   force =    -0.00047172    0.00000000    0.00066029
     atom   12 type  3   force =    -0.00012604    0.00000000    0.00015989
     atom   13 type  3   force =     0.00035627    0.00000000   -0.00013362
     atom   14 type  3   force =     0.00009872    0.00000000   -0.00023003
     atom   15 type  3   force =    -0.00026262    0.00000000   -0.00068744
     atom   16 type  3   force =     0.00002029    0.00000000    0.00030000
     atom   17 type  3   force =     0.00025966    0.00000000   -0.00000048
     atom   18 type  3   force =    -0.00000421    0.00000000    0.00085144
     atom   19 type  3   force =    -0.00040623    0.00000000    0.00016938
     atom   20 type  3   force =     0.00024063    0.00000000   -0.00002301

     Total force =     0.002035     Total SCF correction =     0.000048

     Computing stress (Cartesian axis) and pressure

     negative rho (up, down):  6.564E-02 0.000E+00
          total   stress  (Ry/bohr**3)                   (kbar)     P=       -9.83
  -0.00013618   0.00000000   0.00000020          -20.03        0.00        0.03
   0.00000000  -0.00002793   0.00000000            0.00       -4.11        0.00
   0.00000020   0.00000000  -0.00003636            0.03        0.00       -5.35

     Energy error            =      8.2E-06 Ry
     Gradient error          =      8.5E-04 Ry/Bohr

     bfgs converged in  33 scf cycles and  32 bfgs steps
     (criteria: energy <  1.0E-04 Ry, force <  1.0E-03 Ry/Bohr)

     End of BFGS Geometry Optimization

     Final energy             =   -9109.8605628099 Ry

     File /ddn/data/physics/eamoujaes/2D-Ta2Ni3Te5/ELASTIC/OUT/ta2ni3te5.bfgs deleted, as requested
Begin final coordinates

ATOMIC_POSITIONS (angstrom)
Ta              15.8072669674        0.9149235643       12.3976514132
Ta               6.4551661054        2.7447696811       12.6357393090
Ta               1.9558970401        0.9149235643       12.4149797640
Ta              11.3055326555        2.7447696811       12.6242364705
Ni              13.1425206656        0.9149235643       11.7668497061
Ni               3.7936440824        2.7447696811       13.2660184444
Ni               4.6185315408        0.9149235643       11.7899933410
Ni              13.9677827451        2.7447696811       13.2435739226
Ni               8.8765693484        0.9149235643       12.3060087353
Ni              -0.4630693808        2.7447696811       12.7337192918
Te              14.5609690026        2.7447696811       10.5450520084
Te               5.2082863033        0.9149235643       14.4869177241
Te              10.7866167386        0.9149235643       10.5675661509
Te               1.4432333323        2.7447696811       14.4741856793
Te               3.2095727476        2.7447696811       10.5688843304
Te              12.5601868207        0.9149235643       14.4686280158
Te               6.9623166462        0.9149235643       10.5749886927
Te              16.3154765351        2.7447696811       14.4559274857
Te              -0.4612522868        0.9149235643       10.9526757769
Te               8.8833147539        2.7447696811       14.0846547377
End final coordinates

     Writing all to output data dir /ddn/data/physics/eamoujaes/2D-Ta2Ni3Te5/ELASTIC/OUT/ta2ni3te5.save/ :
     XML data file, charge density, pseudopotentials, collected wavefunctions

     General routines
                                        4.05s GPU  (   10039 calls)
                                        0.11s GPU  (     745 calls)
                                      828.10s GPU  (  453970 calls)

     Parallel routines

   This run was terminated on:  16:16:43  29Jul2024

   JOB DONE.