     Program PWSCF v.6.8 starts on  7Aug2024 at 13:56:43

     K-points division:     npool     =       6
     R & G space division:  proc/nbgrp/npool/nimage =      48

     Waiting for input...
     Reading input from standard input
Warning: card &CELL ignored
Warning: card CELL_DYNAMICS='BFGS' ignored
Warning: card PRESS=0.0 ignored
Warning: card CELL_DOFREE='2DXY' ignored
Warning: card / ignored

     Current dimensions of program PWSCF are:
     Max number of different atomic species (ntypx) = 10
     Max number of k-points (npk) =  40000
     Max angular momentum in pseudopotentials (lmaxx) =  4
     Message from routine read_pp_mesh:
     mismatch in mesh size, discarding the one in header
     Message from routine read_pp_mesh:
     mismatch in mesh size, discarding the one in header
     Message from routine read_pp_mesh:
     mismatch in mesh size, discarding the one in header
     Message from routine setup:
     using ibrav=0 with symmetry is DISCOURAGED, use correct ibrav instead

     Using Slab Decomposition

     bravais-lattice index     =            0
     lattice parameter (alat)  =      33.3365  a.u.
     unit-cell volume          =   10906.8118 (a.u.)^3
     number of atoms/cell      =           20
     number of atomic types    =            3
     number of electrons       =       220.00
     number of Kohn-Sham states=          132
     kinetic-energy cutoff     =      60.0000  Ry
     charge density cutoff     =     480.0000  Ry
     scf convergence threshold =      1.0E-08
     mixing beta               =       0.2000
     number of iterations used =            8  plain     mixing
     Exchange-correlation= SLA PW PBX PBC
                           (   1   4   3   4   0   0   0)

     celldm(1)=  33.336472  celldm(2)=   0.000000  celldm(3)=   0.000000
     celldm(4)=   0.000000  celldm(5)=   0.000000  celldm(6)=   0.000000

     crystal axes: (cart. coord. in units of alat)
               a(1) = (   1.000000   0.000000   0.000000 )
               a(2) = (   0.000000   0.207444   0.000000 )
               a(3) = (   0.000000   0.000000   1.419179 )

     reciprocal axes: (cart. coord. in units 2 pi/alat)
               b(1) = (  1.000000  0.000000  0.000000 )
               b(2) = (  0.000000  4.820569  0.000000 )
               b(3) = (  0.000000  0.000000  0.704633 )

     PseudoPot. # 1 for Ta read from file:
     /home/lovelace/proj/proj909/eamouj78/2D-Ta2Ni3Te5/PHONONS-SR-PSEUDO/Ta.upf
     MD5 check sum: d865b2c2c09566b116f2b8decb2c153d
     Pseudo is Projector augmented-wave + core cor, Zval = 13.0
     Generated using ATOMPAW code
     Shape of augmentation charge: SINC**2
     Using radial grid of 2342 points,  6 beta functions with:
                l(1) =   0
                l(2) =   0
                l(3) =   1
                l(4) =   1
                l(5) =   2
                l(6) =   2
     Q(r) pseudized with 0 coefficients

     PseudoPot. # 2 for Ni read from file:
     /home/lovelace/proj/proj909/eamouj78/2D-Ta2Ni3Te5/PHONONS-SR-PSEUDO/Ni.upf
     MD5 check sum: 85a2a5d9d38f4289a1cc30d5adb66a03
     Pseudo is Projector augmented-wave + core cor, Zval = 18.0
     Generated using ATOMPAW code
     Shape of augmentation charge: SINC**2
     Using radial grid of 2342 points,  6 beta functions with:
                l(1) =   0
                l(2) =   0
                l(3) =   1
                l(4) =   1
                l(5) =   2
                l(6) =   2
     Q(r) pseudized with 0 coefficients

     PseudoPot. # 3 for Te read from file:
     /home/lovelace/proj/proj909/eamouj78/2D-Ta2Ni3Te5/PHONONS-SR-PSEUDO/Te.upf
     MD5 check sum: 8d958f193a7511a138982c2e72838810
     Pseudo is Projector augmented-wave + core cor, Zval =  6.0
     Generated using ATOMPAW code
     Shape of augmentation charge: SINC**2
     Using radial grid of 2342 points,  4 beta functions with:
                l(1) =   0
                l(2) =   0
                l(3) =   1
                l(4) =   1
     Q(r) pseudized with 0 coefficients

     atomic species   valence    mass     pseudopotential
        Ta            13.00   180.94790     Ta( 1.00)
        Ni            18.00    58.69340     Ni( 1.00)
        Te             6.00   127.60000     Te( 1.00)

      4 Sym. Ops. (no inversion) found ( 3 have fractional translation)

   Cartesian axes

     site n.     atom                  positions (alat units)
         1           Ta  tau(   1) = (   0.8725319   0.0518611   0.7053907  )
         2           Ta  tau(   2) = (   0.3725302   0.1555833   0.7138019  )
         3           Ta  tau(   3) = (   0.1284100   0.0518611   0.7053859  )
         4           Ta  tau(   4) = (   0.6284121   0.1555833   0.7138059  )
         5           Ni  tau(   5) = (   0.7292508   0.0518611   0.6667296  )
         6           Ni  tau(   6) = (   0.2292480   0.1555833   0.7524628  )
         7           Ni  tau(   7) = (   0.2716763   0.0518611   0.6667104  )
         8           Ni  tau(   8) = (   0.7716782   0.1555833   0.7524815  )
         9           Ni  tau(   9) = (   0.5004528   0.0518611   0.7011114  )
        10           Ni  tau(  10) = (   0.0004522   0.1555833   0.7180800  )
        11           Te  tau(  11) = (   0.8056987   0.1555833   0.5972039  )
        12           Te  tau(  12) = (   0.3056952   0.0518611   0.8219883  )
        13           Te  tau(  13) = (   0.6006275   0.0518611   0.5963046  )
        14           Te  tau(  14) = (   0.1006262   0.1555833   0.8228875  )
        15           Te  tau(  15) = (   0.1952121   0.1555833   0.5971887  )
        16           Te  tau(  16) = (   0.6952144   0.0518611   0.8220033  )
        17           Te  tau(  17) = (   0.4003073   0.0518611   0.5962951  )
        18           Te  tau(  18) = (   0.9003086   0.1555833   0.8228976  )
        19           Te  tau(  19) = (   0.0004788   0.0518611   0.6143424  )
        20           Te  tau(  20) = (   0.5004787   0.1555833   0.8048479  )

     number of k points=    12  Gaussian smearing, width (Ry)=  0.0020
                       cart. coord. in units 2pi/alat
        k(    1) = (   0.0000000   0.0000000   0.0000000), wk =   0.1000000
        k(    2) = (   0.0000000   0.4820569   0.0000000), wk =   0.2000000
        k(    3) = (   0.0000000   0.9641138   0.0000000), wk =   0.2000000
        k(    4) = (   0.0000000   1.4461708   0.0000000), wk =   0.2000000
        k(    5) = (   0.0000000   1.9282277   0.0000000), wk =   0.2000000
        k(    6) = (   0.0000000  -2.4102846   0.0000000), wk =   0.1000000
        k(    7) = (  -0.5000000   0.0000000   0.0000000), wk =   0.1000000
        k(    8) = (  -0.5000000   0.4820569   0.0000000), wk =   0.2000000
        k(    9) = (  -0.5000000   0.9641138   0.0000000), wk =   0.2000000
        k(   10) = (  -0.5000000   1.4461708   0.0000000), wk =   0.2000000
        k(   11) = (  -0.5000000   1.9282277   0.0000000), wk =   0.2000000
        k(   12) = (  -0.5000000  -2.4102846   0.0000000), wk =   0.1000000

     Initial potential from superposition of free atoms

     starting charge  219.99272, renormalised to  220.00000

     negative rho (up, down):  5.146E-02 0.000E+00
     Starting wfcs are  260 randomized atomic wfcs
     Checking if some PAW data can be deallocated...

     Self-consistent Calculation

     iteration #  1     ecut=    60.00 Ry     beta= 0.20
     Davidson diagonalization with overlap
     ethr =  1.00E-02,  avg # of iterations =  2.9

     negative rho (up, down):  5.193E-02 0.000E+00

     total energy              =   -9108.00038644 Ry
     estimated scf accuracy    <       7.53126970 Ry

[...]

     total energy              =   -9109.88357901 Ry
     estimated scf accuracy    <       0.00000001 Ry

     iteration # 21     ecut=    60.00 Ry     beta= 0.20
     Davidson diagonalization with overlap
     ethr =  4.63E-12,  avg # of iterations =  2.2

[...]

     End of self-consistent calculation

          k = 0.0000 0.0000 0.0000 ( 85743 PWs)   bands (ev):

  -107.5456-107.5445-107.5342-107.5332-107.1626-107.1543 -72.8732 -72.8721
   -72.8653 -72.8648 -68.1192 -68.1182 -68.1148 -68.1137 -67.9547 -67.9536
   -67.8965 -67.8954 -67.8387 -67.8376 -67.7973 -67.7962 -67.6639 -67.6555
   -67.6301 -67.6218 -67.4401 -67.4318 -39.3662 -39.3648 -39.3586 -39.3574
   -39.3081 -39.3036 -39.3006 -39.2996 -39.2994 -39.2950 -39.2927 -39.2921
   -17.1463 -16.8589 -16.7440 -16.2954 -16.2582 -16.0519 -15.9911 -15.9769
   -15.8545 -15.6586 -10.3719 -10.1205  -9.9318  -9.8809  -9.6393  -9.5978
    -9.5847  -8.9681  -8.8309  -8.4102  -8.3362  -8.0186  -7.9610  -7.9591
    -7.8623  -7.8379  -7.8377  -7.7873  -7.4422  -7.4407  -7.2680  -7.1046
    -6.9857  -6.9283  -6.8986  -6.8196  -6.7792  -6.6287  -6.5132  -6.5082
    -6.4555  -6.3285  -6.3243  -6.1831  -6.1436  -6.1002  -6.0947  -6.0270
    -5.9920  -5.8674  -5.7845  -5.7046  -5.5187  -5.4933  -5.4876  -5.4491
    -5.3472  -5.3468  -5.2692  -5.2510  -5.1808  -5.1001  -4.9903  -4.8785
    -4.8400  -4.7215  -4.6413  -4.5542  -4.4196  -4.1352  -4.1334  -4.1293
    -3.3780  -3.3715  -3.0841  -3.0731  -2.9677  -2.8322  -2.6728  -2.6514
    -2.4772  -2.2721  -2.0700  -1.9724  -1.8041  -1.5553  -1.0922  -0.8911
    -0.8565  -0.7989  -0.7913  -0.5736

[...]

          k = 0.0000-2.4103 0.0000 ( 85394 PWs)   bands (ev):

[...]

          k =-0.5000 0.0000 0.0000 ( 85754 PWs)   bands (ev):

[...]

          k =-0.5000-2.4103 0.0000 ( 85316 PWs)   bands (ev):

  -107.5400-107.5398-107.5392-107.5384-107.1626-107.1543 -72.8716 -72.8704
   -72.8637 -72.8631 -68.1174 -68.1172 -68.1166 -68.1159 -67.9327 -67.9326
   -67.9320 -67.9312 -67.8104 -67.8102 -67.8095 -67.8089 -67.6638 -67.6555
   -67.6301 -67.6218 -67.4398 -67.4315 -39.3735 -39.3723 -39.3657 -39.3647
   -39.3569 -39.3553 -39.3492 -39.3480 -39.2990 -39.2958 -39.2914 -39.2882
   -15.6978 -15.6937 -15.5251 -15.5209 -15.5109 -15.5052 -15.4113 -15.4027
   -15.2326 -15.2288 -10.5005 -10.4971 -10.2611 -10.2562  -9.6646  -9.6582
    -9.2144  -9.2118  -9.0545  -9.0533  -8.2846  -8.2817  -8.2785  -8.2780
    -7.9722  -7.9698  -7.8188  -7.8165  -7.7285  -7.7254  -7.6603  -7.6552
    -7.6145  -7.6119  -7.4188  -7.4160  -7.1282  -7.1277  -7.0645  -7.0634
    -6.8824  -6.8812  -6.6532  -6.6524  -6.4735  -6.4725  -6.4310  -6.4275
    -6.3401  -6.3400  -6.1182  -6.1154  -6.0745  -6.0732  -5.9667  -5.9666
    -5.7106  -5.7078  -5.5550  -5.5517  -5.5191  -5.5148  -5.3712  -5.3680
    -5.3390  -5.3336  -5.1148  -5.1144  -4.9000  -4.8972  -3.8294  -3.8226
    -3.1054  -3.1036  -3.0189  -3.0186  -2.8946  -2.8931  -2.3072  -2.3051
    -2.1227  -2.1181  -1.9335  -1.9281  -1.8463  -1.8389  -1.4452  -1.4429
    -1.3011  -1.3010  -0.6135  -0.6114

     the Fermi energy is    -4.1512 ev

!    total energy              =   -9109.88357901 Ry

     total all-electron energy =     -9109.883579 Ry
     estimated scf accuracy    <          4.5E-09 Ry
     smearing contrib. (-TS)   =      -0.00019544 Ry
     internal energy E=F+TS    =   -9109.88338357 Ry

     The total energy is F=E-TS. E is the sum of the following terms:
     one-electron contribution =  -26251.95626086 Ry
     hartree contribution      =   12950.77418513 Ry
     xc contribution           =    -364.94752667 Ry
     ewald contribution        =   10823.96024397 Ry
     one-center paw contrib.   =   -6267.71402515 Ry

     convergence has been achieved in  21 iterations

     negative rho (up, down):  6.557E-02 0.000E+00

     Forces acting on atoms (cartesian axes, Ry/au):

     atom    1 type  1   force =    -0.00000611    0.00000000   -0.00002344
     atom    2 type  1   force =    -0.00000611    0.00000000    0.00002344
     atom    3 type  1   force =     0.00002145   -0.00000000   -0.00003396
     atom    4 type  1   force =     0.00002145    0.00000000    0.00003396
     atom    5 type  2   force =    -0.00003526    0.00000000    0.00003357
     atom    6 type  2   force =    -0.00003526    0.00000000   -0.00003357
     atom    7 type  2   force =     0.00001368    0.00000000    0.00000802
     atom    8 type  2   force =     0.00001368    0.00000000   -0.00000802
     atom    9 type  2   force =     0.00000318    0.00000000    0.00000880
     atom   10 type  2   force =     0.00000318    0.00000000   -0.00000880
     atom   11 type  3   force =    -0.00000072    0.00000000   -0.00001322
     atom   12 type  3   force =    -0.00000072    0.00000000    0.00001322
     atom   13 type  3   force =    -0.00000401    0.00000000    0.00000288
     atom   14 type  3   force =    -0.00000401    0.00000000   -0.00000288
     atom   15 type  3   force =     0.00000396    0.00000000   -0.00001030
     atom   16 type  3   force =     0.00000396    0.00000000    0.00001030
     atom   17 type  3   force =    -0.00000035    0.00000000    0.00000069
     atom   18 type  3   force =    -0.00000035    0.00000000   -0.00000069
     atom   19 type  3   force =     0.00000419    0.00000000   -0.00001100
     atom   20 type  3   force =     0.00000419    0.00000000    0.00001100

     Total force =     0.000104     Total SCF correction =     0.000211
     SCF correction compared to forces is large: reduce conv_thr to get better values

     Computing stress (Cartesian axis) and pressure

     negative rho (up, down):  6.557E-02 0.000E+00
          total   stress  (Ry/bohr**3)                   (kbar)     P=       -1.92
  -0.00000005   0.00000000   0.00000000           -0.01        0.00        0.00
   0.00000000  -0.00000020   0.00000000            0.00       -0.03        0.00
   0.00000000   0.00000000  -0.00003885            0.00        0.00       -5.71

     Writing output data file /work/eamouj78/ta2ni3te5/ta2ni3te5.save/

     General routines

     Parallel routines

   This run was terminated on:  13:58:16   7Aug2024

   JOB DONE.