     Program PWSCF v.7.1 starts on 30Jul2024 at 22: 0:16

     Waiting for input...
     Reading input from standard input
Warning: card &CELL ignored
Warning: card CELL_DYNAMICS='BFGS' ignored
Warning: card PRESS=0.0 ignored
Warning: card CELL_DOFREE='2DXY' ignored
Warning: card / ignored

     Current dimensions of program PWSCF are:
     Max number of different atomic species (ntypx) = 10
     Max number of k-points (npk) =  40000
     Max angular momentum in pseudopotentials (lmaxx) =  4
     Message from routine read_pp_mesh:
     mismatch in mesh size, discarding the one in header
     Message from routine read_pp_mesh:
     mismatch in mesh size, discarding the one in header
     Message from routine read_pp_mesh:
     mismatch in mesh size, discarding the one in header

     K-points division:     npool     =       8
     R & G space division:  proc/nbgrp/npool/nimage =       3
     Subspace diagonalization in iterative solution of the eigenvalue problem:
     a serial algorithm will be used

     Using Slab Decomposition

     bravais-lattice index     =            0
     lattice parameter (alat)  =      30.7345  a.u.
     unit-cell volume          =   10883.7920 (a.u.)^3
     number of atoms/cell      =           20
     number of atomic types    =            3
     number of electrons       =       220.00
     number of Kohn-Sham states=          132
     kinetic-energy cutoff     =      60.0000  Ry
     charge density cutoff     =     480.0000  Ry
     scf convergence threshold =      1.0E-08
     mixing beta               =       0.2000
     number of iterations used =            8  plain     mixing
     energy convergence thresh.=      1.0E-04
     force convergence thresh. =      1.0E-03
     Exchange-correlation= SLA PW PBX PBC
                           (   1   4   3   4   0   0   0)
     nstep                     =         2000

     celldm(1)=  30.734506  celldm(2)=   0.000000  celldm(3)=   0.000000
     celldm(4)=   0.000000  celldm(5)=   0.000000  celldm(6)=   0.000000

     crystal axes: (cart. coord. in units of alat)
               a(1) = (   1.000000   0.000000   0.000000 )
               a(2) = (   0.000000   0.243540   0.000000 )
               a(3) = (   0.000000   0.000000   1.539326 )

     reciprocal axes: (cart. coord. in units 2 pi/alat)
               b(1) = (  1.000000  0.000000  0.000000 )
               b(2) = (  0.000000  4.106096  0.000000 )
               b(3) = (  0.000000  0.000000  0.649635 )

     PseudoPot. # 1 for Ta read from file:
     /ddn/data/physics/eamoujaes/PSEUDO-CREATED/Ta.upf
     MD5 check sum: d865b2c2c09566b116f2b8decb2c153d
     Pseudo is Projector augmented-wave + core cor, Zval = 13.0
     Generated using ATOMPAW code
     Shape of augmentation charge: SINC**2
     Using radial grid of 2342 points,  6 beta functions with:
                l(1) =   0
                l(2) =   0
                l(3) =   1
                l(4) =   1
                l(5) =   2
                l(6) =   2
     Q(r) pseudized with 0 coefficients

     PseudoPot. # 2 for Ni read from file:
     /ddn/data/physics/eamoujaes/PSEUDO-CREATED/Ni.upf
     MD5 check sum: 85a2a5d9d38f4289a1cc30d5adb66a03
     Pseudo is Projector augmented-wave + core cor, Zval = 18.0
     Generated using ATOMPAW code
     Shape of augmentation charge: SINC**2
     Using radial grid of 2342 points,  6 beta functions with:
                l(1) =   0
                l(2) =   0
                l(3) =   1
                l(4) =   1
                l(5) =   2
                l(6) =   2
     Q(r) pseudized with 0 coefficients

     PseudoPot. # 3 for Te read from file:
     /ddn/data/physics/eamoujaes/PSEUDO-CREATED/Te.upf
     MD5 check sum: 8d958f193a7511a138982c2e72838810
     Pseudo is Projector augmented-wave + core cor, Zval =  6.0
     Generated using ATOMPAW code
     Shape of augmentation charge: SINC**2
     Using radial grid of 2342 points,  4 beta functions with:
                l(1) =   0
                l(2) =   0
                l(3) =   1
                l(4) =   1
     Q(r) pseudized with 0 coefficients

     atomic species   valence    mass     pseudopotential
        Ta            13.00   180.94790     Ta( 1.00)
        Ni            18.00    58.69340     Ni( 1.00)
        Te             6.00   127.60000     Te( 1.00)

     No symmetry found

   Cartesian axes

     site n.     atom                  positions (alat units)
         1           Ta  tau(   1) = (   0.9463749   0.0562545   0.7651156  )
         2           Ta  tau(   2) = (   0.4040550   0.1687635   0.7742251  )
         3           Ta  tau(   3) = (   0.1392742   0.0562545   0.7651049  )
         4           Ta  tau(   4) = (   0.6815945   0.1687635   0.7742349  )
         5           Ni  tau(   5) = (   0.7909744   0.0562545   0.7231732  )
         6           Ni  tau(   6) = (   0.2486535   0.1687635   0.8161672  )
         7           Ni  tau(   7) = (   0.2946672   0.0562545   0.7231568  )
         8           Ni  tau(   8) = (   0.8369872   0.1687635   0.8161830  )
         9           Ni  tau(   9) = (   0.5428152   0.0562545   0.7604652  )
        10           Ni  tau(  10) = (   0.0004966   0.1687635   0.7788742  )
        11           Te  tau(  11) = (   0.8738959   0.1687635   0.6477654  )
        12           Te  tau(  12) = (   0.3315741   0.0562545   0.8915748  )
        13           Te  tau(  13) = (   0.6514654   0.0562545   0.6467864  )
        14           Te  tau(  14) = (   0.1091460   0.1687635   0.8925538  )
        15           Te  tau(  15) = (   0.2117369   0.1687635   0.6477517  )
        16           Te  tau(  16) = (   0.7540574   0.0562545   0.8915883  )
        17           Te  tau(  17) = (   0.4341871   0.0562545   0.6467764  )
        18           Te  tau(  18) = (   0.9765065   0.1687635   0.8925644  )
        19           Te  tau(  19) = (   0.0005103   0.0562545   0.6663563  )
        20           Te  tau(  20) = (   0.5428282   0.1687635   0.8729819  )

     number of k points=    12  Gaussian smearing, width (Ry)=  0.0020
                       cart. coord. in units 2pi/alat
        k(    1) = (   0.0000000   0.0000000   0.0000000), wk =   0.1000000
        k(    2) = (   0.0000000   0.4106096   0.0000000), wk =   0.2000000
        k(    3) = (   0.0000000   0.8212192   0.0000000), wk =   0.2000000
        k(    4) = (   0.0000000   1.2318288   0.0000000), wk =   0.2000000
        k(    5) = (   0.0000000   1.6424384   0.0000000), wk =   0.2000000
        k(    6) = (   0.0000000  -2.0530480   0.0000000), wk =   0.1000000
        k(    7) = (  -0.5000000   0.0000000   0.0000000), wk =   0.1000000
        k(    8) = (  -0.5000000   0.4106096   0.0000000), wk =   0.2000000
        k(    9) = (  -0.5000000   0.8212192   0.0000000), wk =   0.2000000
        k(   10) = (  -0.5000000   1.2318288   0.0000000), wk =   0.2000000
        k(   11) = (  -0.5000000   1.6424384   0.0000000), wk =   0.2000000
        k(   12) = (  -0.5000000  -2.0530480   0.0000000), wk =   0.1000000

     Initial potential from superposition of free atoms

     starting charge     219.9927, renormalised to     220.0000

     negative rho (up, down):  4.669E-02 0.000E+00
     Starting wfcs are  260 randomized atomic wfcs
     Checking if some PAW data can be deallocated...

     Self-consistent Calculation

     iteration #  1     ecut=    60.00 Ry     beta= 0.20
     Davidson diagonalization with overlap
     ethr =  1.00E-02,  avg # of iterations =  2.7

     negative rho (up, down):  4.812E-02 0.000E+00

     total energy              =   -9105.05438129 Ry
     estimated scf accuracy    <      10.69138893 Ry

[...]

     End of self-consistent calculation

          k = 0.0000 0.0000 0.0000 ( 85337 PWs)   bands (ev):

  -104.6620-103.0593-103.0368-103.0294-102.9072-102.7144 -68.8595 -68.8400
   -68.6205 -68.2212 -65.3149 -65.1922 -64.9518 -63.6584 -63.6115 -63.5716
   -63.5584 -63.4717 -63.4711 -63.4242 -63.3439 -63.3132 -63.2714 -63.2605
   -63.2115 -63.1818 -63.1677 -62.9970 -36.1433 -35.2998 -35.2796 -35.2669
   -35.2488 -35.2386 -35.2219 -35.2049 -35.0830 -34.9802 -34.9496 -34.5747
   -16.4982 -14.1859 -12.3003 -12.0761 -11.6728 -11.5972 -11.3954 -11.3391
   -11.1385 -10.9832  -7.5764  -6.9544  -6.4958  -6.2386  -5.6199  -5.4984
    -5.2365  -4.9414  -4.9202  -4.7471  -4.4808  -4.4225  -4.2837  -3.9507
    -3.8681  -3.7048  -3.5867  -3.5370  -3.5081  -3.4330  -3.2834  -3.2466
    -3.1098  -3.0866  -3.0596  -2.9618  -2.7648  -2.7310  -2.5720  -2.5380
    -2.3447  -2.2754  -2.2167  -2.1242  -2.1075  -1.9529  -1.8705  -1.7647
    -1.7258  -1.6481  -1.5252  -1.4805  -1.4333  -1.4109  -1.3437  -1.2140
    -1.1869  -1.0950  -1.0520  -1.0201  -0.9425  -0.8558  -0.6831  -0.6339
    -0.5441  -0.4459  -0.2956  -0.2426  -0.0185   0.0272   0.0447   0.4129
     0.4537   0.6731   0.9150   1.0621   1.1340   1.1933   1.4240   1.5056
     1.6708   1.7983   1.9769   2.1354   2.2769   2.5992   2.6781   2.8410
     2.9820   3.0032   3.1135   3.4723

[...]

          k =-0.5000 0.0000 0.0000 ( 85532 PWs)   bands (ev):

[...]

     the Fermi energy is     0.1137 ev

!    total energy              =   -9107.74532625 Ry
     total all-electron energy =     -9107.745326 Ry
     estimated scf accuracy    <          9.9E-09 Ry
     smearing contrib. (-TS)   =      -0.00031928 Ry
     internal energy E=F+TS    =   -9107.74500697 Ry

     The total energy is F=E-TS. E is the sum of the following terms:
     one-electron contribution =  -16518.15962042 Ry
     hartree contribution      =    8117.69255294 Ry
     xc contribution           =    -366.33292147 Ry
     ewald contribution        =    5926.86724339 Ry
     one-center paw contrib.   =   -6267.81226140 Ry

     convergence has been achieved in  29 iterations

[...]

     Forces acting on atoms (cartesian axes, Ry/au):

     atom    1 type  1   force =    -1.23508187   -0.20287488    1.84841743
     atom    2 type  1   force =    -0.01212479    0.02148701   -0.01688572
     atom    3 type  1   force =     0.03900336   -0.03073117    0.00310383
     atom    4 type  1   force =     0.01104857    0.02205160   -0.01315785
     atom    5 type  2   force =    -0.00957751   -0.03037540    0.00330369
     atom    6 type  2   force =     0.01468656    0.03434917   -0.02819693
     atom    7 type  2   force =    -0.00053806   -0.03145054    0.00881089
     atom    8 type  2   force =    -0.03147514    0.03289669   -0.02303175
     atom    9 type  2   force =    -0.00061969   -0.01227759    0.01094098
     atom   10 type  2   force =     0.31484627    0.17953261   -0.64701281
     atom   11 type  3   force =    -0.15994065    0.05213427   -0.01677885
     atom   12 type  3   force =    -0.00878806   -0.01811445   -0.02457809
     atom   13 type  3   force =     0.00791645   -0.01150565    0.02411867
     atom   14 type  3   force =     0.75223986    0.00978844    0.06355420
     atom   15 type  3   force =    -0.00667375    0.02122855    0.02853123
     atom   16 type  3   force =     0.00990055   -0.01540543   -0.02751987
     atom   17 type  3   force =    -0.00653735   -0.01154515    0.02530971
     atom   18 type  3   force =    -0.85658450    0.02515946    0.77662849
     atom   19 type  3   force =     1.17809862   -0.04563572   -1.98185673
     atom   20 type  3   force =     0.00020111    0.01128819   -0.01370052

     Total force =     3.578226     Total SCF correction =     0.000373

     Computing stress (Cartesian axis) and pressure

     negative rho (up, down):  6.782E-02 0.000E+00
          total   stress  (Ry/bohr**3)                   (kbar)     P=       62.57
   0.00048724   0.00001080  -0.00029988           71.68        1.59      -44.11
   0.00001080   0.00005086   0.00002544            1.59        7.48        3.74
  -0.00029988   0.00002544   0.00073802          -44.11        3.74      108.57

     BFGS Geometry Optimization
     Energy error            =      0.0E+00 Ry
     Gradient error          =      2.0E+00 Ry/Bohr

     number of scf cycles    =   1
     number of bfgs steps    =   0

     energy             new  =   -9107.7453262492 Ry

     new trust radius        =       0.5000000000 bohr
     new conv_thr            =       0.0000000100 Ry

ATOMIC_POSITIONS (angstrom)
Ta           15.2501301022        0.8916461223       12.6559238045
Ta            6.5701593403        2.7472350558       12.5900589012
Ta            2.2696307783        0.9113975335       12.4440220884
Ta           11.0867210369        2.7472998353       12.5906467832
Ni           12.8633092551        0.9114383541       11.7620686535
Ni            4.0457852314        2.7487108331       13.2709086942
Ni            4.7924049882        0.9113149945       11.7624339008
Ni           13.6091492219        2.7485441789       13.2717583933
Ni            8.8282755644        0.9135148589       12.3694609417
Ni            0.0442017079        2.7653688799       12.5933729086
Te           14.1946911178        2.7507514592       10.5333315805
Te            5.3917135309        0.9128451495       14.4977520675
Te           10.5963414355        0.9136034303       10.5221012025
Te            1.8614605216        2.7458927867       14.5237870323
Te            3.4429229598        2.7472054007       10.5383071548
Te           12.2651255054        0.9131559778       14.4976349754
Te            7.0608683393        0.9135988979       10.5220752551
Te           15.7836191826        2.7476564253       14.6057758653
Te            0.1434715082        0.9096874162       10.6102249469
Te            8.8285810355        2.7460648641       14.1966058499

     Writing config-only to output data dir /ddn/data/physics/eamoujaes/2D-Ta2Ni3Te5/ELASTIC/C12/OUT/ta2ni3te5.save/
     NEW-OLD atomic charge density approx. for the potential

[...]

     iteration #  1     ecut=    60.00 Ry     beta= 0.20
     Davidson diagonalization with overlap
     c_bands:  2 eigenvalues not converged
     c_bands:  1 eigenvalues not converged
     ethr =  1.00E-06,  avg # of iterations = 19.1

[...]

     Energy error            =      1.4E+00 Ry
     Gradient error          =      4.3E-01 Ry/Bohr

[...]

     energy             old  =   -9107.7453262492 Ry
     energy             new  =   -9109.1276084216 Ry

     CASE: energy            _new < energy            _old

[...]

     iteration #  6     ecut=    60.00 Ry     beta= 0.20
     Davidson diagonalization with overlap
     c_bands:  1 eigenvalues not converged
     ethr =  8.15E-07,  avg # of iterations =  3.5

[...]

     Threshold (ethr) on eigenvalues was too large:
     Diagonalizing with lowered threshold

     Davidson diagonalization with overlap
     ethr =  8.15E-08,  avg # of iterations =  4.0

[...]

     number of scf cycles    =  53
     number of bfgs steps    =  52

     energy             old  =   -9109.7681662852 Ry
     energy             new  =   -9109.7681807029 Ry

     CASE: energy            _new < energy            _old

     new trust radius        =       0.0051737149 bohr
     new conv_thr            =            1.0E-10 Ry

ATOMIC_POSITIONS (angstrom)
Ta           14.7819322706        0.8394323824       12.9213096127
Ta            6.6451280987        2.8198396377       12.1135190623
Ta            2.7441657247        0.8393583014       12.8758694352
Ta           10.8806047168        2.8196783226       12.1623013419
Ni           12.5618390902        0.8397583254       11.7517724478
Ni            4.4251146277        2.8207219591       13.2880500660
Ni            4.9534027520        0.8384240180       11.6766293387
Ni           13.0881613646        2.8201675567       13.3610198837
Ni            8.7576196529        0.8390265326       12.0818816080
Ni            0.6233088956        2.8193383660       12.9494441548
Te           13.8513944360        2.8205770684       10.7897668452
Te            5.7175042539        0.8395007998       14.2453365250
Te           10.4783506304        0.8406148717       10.1944000894
Te            2.3427227728        2.8203577867       14.8453707483
Te            3.6583526812        2.8196124633       10.7253078668
Te           11.7868433048        0.8404072449       14.3111790245
Te            7.0704396879        0.8393591603       10.1536495835
Te           15.2011259056        2.8212785646       14.8815147655
Te            0.6152891675        0.8391321098       11.1804206289
Te            8.7452623294        2.8203469826       13.8495079715

     Writing config-only to output data dir /ddn/data/physics/eamoujaes/2D-Ta2Ni3Te5/ELASTIC/C12/OUT/ta2ni3te5.save/
     NEW-OLD atomic charge density approx. for the potential

[...]

     Self-consistent Calculation

[...]

     Threshold (ethr) on eigenvalues was too large:
     Diagonalizing with lowered threshold

     Davidson diagonalization with overlap
     ethr =  5.37E-09,  avg # of iterations =  5.0

[...]

     total energy              =   -9109.76819212 Ry
     estimated scf accuracy    <          2.7E-10 Ry

     iteration # 18     ecut=    60.00 Ry     beta= 0.20
     Davidson diagonalization with overlap
     ethr =  1.00E-13,  avg # of iterations =  1.1

[...]

     End of self-consistent calculation

[...]

          k = 0.0000-2.0530 0.0000 ( 85490 PWs)   bands (ev):

[...]

          k =-0.5000-2.0530 0.0000 ( 85452 PWs)   bands (ev):

  -103.4265-103.4220-103.3974-103.3959-102.9199-102.9178 -68.7246 -68.7233
   -68.7215 -68.7187 -63.9776 -63.9727 -63.9483 -63.9479 -63.8771 -63.8736
   -63.8501 -63.8473 -63.6772 -63.6728 -63.6490 -63.6471 -63.3684 -63.3668
   -63.3312 -63.3300 -63.3132 -63.3076 -35.2240 -35.2221 -35.2193 -35.2171
   -35.2027 -35.2017 -35.1982 -35.1969 -35.1510 -35.1495 -35.1457 -35.1435
   -11.6783 -11.6772 -11.6129 -11.6123 -11.5484 -11.5474 -11.4419 -11.4402
   -11.0944 -11.0937  -6.4073  -6.4069  -5.9684  -5.9672  -5.4306  -5.4289
    -5.0493  -5.0483  -4.9660  -4.9638  -4.2134  -4.2133  -4.1170  -4.1160
    -3.8241  -3.8234  -3.4899  -3.4878  -3.4703  -3.4693  -3.4624  -3.4582
    -3.3134  -3.3083  -3.2334  -3.2328  -2.9004  -2.8992  -2.8565  -2.8518
    -2.5938  -2.5910  -2.5801  -2.5793  -2.4181  -2.4166  -2.3593  -2.3564
    -2.1642  -2.1623  -2.0165  -2.0121  -1.8688  -1.8650  -1.7108  -1.7060
    -1.5933  -1.5896  -1.5168  -1.5148  -1.3177  -1.3130  -1.1960  -1.1926
    -1.1859  -1.1847  -0.7580  -0.7558  -0.5286  -0.5279   0.2017   0.2047
     0.9180   0.9232   1.3676   1.3691   1.3821   1.3869   1.4400   1.4438
     1.9336   1.9373   2.1946   2.1996   2.3857   2.3934   2.7592   2.7615
     2.9513   2.9574   3.2581   3.2616

     the Fermi energy is     0.0969 ev

!    total energy              =   -9109.76819212 Ry
     total all-electron energy =     -9109.768192 Ry
     estimated scf accuracy    <          8.6E-11 Ry
     smearing contrib. (-TS)   =      -0.00000619 Ry
     internal energy E=F+TS    =   -9109.76818592 Ry

     The total energy is F=E-TS. E is the sum of the following terms:
     one-electron contribution =  -16326.63702277 Ry
     hartree contribution      =    8021.77668413 Ry
     xc contribution           =    -365.03999992 Ry
     ewald contribution        =    5827.79929497 Ry
     one-center paw contrib.   =   -6267.66714233 Ry

     convergence has been achieved in  18 iterations

     negative rho (up, down):  6.475E-02 0.000E+00

     Forces acting on atoms (cartesian axes, Ry/au):

     atom    1 type  1   force =    -0.00009649    0.00021069   -0.00076552
     atom    2 type  1   force =     0.00002357   -0.00008954    0.00049093
     atom    3 type  1   force =     0.00000552    0.00017022    0.00034169
     atom    4 type  1   force =    -0.00057204    0.00026669   -0.00024443
     atom    5 type  2   force =     0.00047720   -0.00000952   -0.00040321
     atom    6 type  2   force =     0.00059584   -0.00036455    0.00006265
     atom    7 type  2   force =     0.00060843    0.00034873    0.00025787
     atom    8 type  2   force =     0.00030695    0.00010699   -0.00014389
     atom    9 type  2   force =    -0.00043299    0.00005855    0.00035127
     atom   10 type  2   force =     0.00031732    0.00003258    0.00027098
     atom   11 type  3   force =    -0.00024441   -0.00006436    0.00001562
     atom   12 type  3   force =    -0.00004165    0.00020405    0.00026179
     atom   13 type  3   force =     0.00005857   -0.00018241   -0.00038076
     atom   14 type  3   force =    -0.00007190   -0.00010249   -0.00077363
     atom   15 type  3   force =    -0.00048722   -0.00017231   -0.00002339
     atom   16 type  3   force =     0.00024597   -0.00014956   -0.00005046
     atom   17 type  3   force =    -0.00065113    0.00001465    0.00042022
     atom   18 type  3   force =    -0.00024957   -0.00018865   -0.00009453
     atom   19 type  3   force =     0.00011304    0.00000304    0.00054428
     atom   20 type  3   force =     0.00009500   -0.00009281   -0.00013749

     Total force =     0.002435     Total SCF correction =     0.000063

     Computing stress (Cartesian axis) and pressure

     negative rho (up, down):  6.475E-02 0.000E+00
          total   stress  (Ry/bohr**3)                   (kbar)     P=        1.08
   0.00013036   0.00000004   0.00000045           19.18        0.01        0.07
   0.00000004  -0.00006894  -0.00000005            0.01      -10.14       -0.01
   0.00000045  -0.00000005  -0.00003941            0.07       -0.01       -5.80

     Energy error            =      1.1E-05 Ry
     Gradient error          =      7.7E-04 Ry/Bohr

     bfgs converged in  54 scf cycles and  53 bfgs steps
     (criteria: energy <  1.0E-04 Ry, force <  1.0E-03 Ry/Bohr)

     End of BFGS Geometry Optimization

     Final energy             =   -9109.7681921157 Ry

     File /ddn/data/physics/eamoujaes/2D-Ta2Ni3Te5/ELASTIC/C12/OUT/ta2ni3te5.bfgs deleted, as requested
Begin final coordinates

ATOMIC_POSITIONS (angstrom)
Ta           14.7819322706        0.8394323824       12.9213096127
Ta            6.6451280987        2.8198396377       12.1135190623
Ta            2.7441657247        0.8393583014       12.8758694352
Ta           10.8806047168        2.8196783226       12.1623013419
Ni           12.5618390902        0.8397583254       11.7517724478
Ni            4.4251146277        2.8207219591       13.2880500660
Ni            4.9534027520        0.8384240180       11.6766293387
Ni           13.0881613646        2.8201675567       13.3610198837
Ni            8.7576196529        0.8390265326       12.0818816080
Ni            0.6233088956        2.8193383660       12.9494441548
Te           13.8513944360        2.8205770684       10.7897668452
Te            5.7175042539        0.8395007998       14.2453365250
Te           10.4783506304        0.8406148717       10.1944000894
Te            2.3427227728        2.8203577867       14.8453707483
Te            3.6583526812        2.8196124633       10.7253078668
Te           11.7868433048        0.8404072449       14.3111790245
Te            7.0704396879        0.8393591603       10.1536495835
Te           15.2011259056        2.8212785646       14.8815147655
Te            0.6152891675        0.8391321098       11.1804206289
Te            8.7452623294        2.8203469826       13.8495079715
End final coordinates

     Writing all to output data dir /ddn/data/physics/eamoujaes/2D-Ta2Ni3Te5/ELASTIC/C12/OUT/ta2ni3te5.save/

     General routines

     Parallel routines

   This run was terminated on:   5:27: 2  31Jul2024

   JOB DONE.