     Program PWSCF v.7.1 starts on 31Jul2024 at  5:27: 5

     Waiting for input...
     Reading input from standard input
Warning: card &CELL ignored
Warning: card CELL_DYNAMICS='BFGS' ignored
Warning: card PRESS=0.0 ignored
Warning: card CELL_DOFREE='2DXY' ignored
Warning: card / ignored

     Current dimensions of program PWSCF are:
     Max number of different atomic species (ntypx) = 10
     Max number of k-points (npk) =  40000
     Max angular momentum in pseudopotentials (lmaxx) =  4
     Message from routine read_pp_mesh:
     mismatch in mesh size, discarding the one in header
     Message from routine read_pp_mesh:
     mismatch in mesh size, discarding the one in header
     Message from routine read_pp_mesh:
     mismatch in mesh size, discarding the one in header

     K-points division:     npool     =       8
     R & G space division:  proc/nbgrp/npool/nimage =       3
     Subspace diagonalization in iterative solution of the eigenvalue problem:
     a serial algorithm will be used

     Using Slab Decomposition

     bravais-lattice index     =            0
     lattice parameter (alat)  =      31.3732  a.u.
     unit-cell volume          =   10894.0039 (a.u.)^3
     number of atoms/cell      =           20
     number of atomic types    =            3
     number of electrons       =       220.00
     number of Kohn-Sham states=          132
     kinetic-energy cutoff     =      60.0000  Ry
     charge density cutoff     =     480.0000  Ry
     scf convergence threshold =      1.0E-08
     mixing beta               =       0.2000
     number of iterations used =            8  plain     mixing
     energy convergence thresh.=      1.0E-04
     force convergence thresh. =      1.0E-03
     Exchange-correlation= SLA PW PBX PBC
                           (   1   4   3   4   0   0   0)
     nstep                     =         2000

     celldm(1)=  31.373233  celldm(2)=   0.000000  celldm(3)=   0.000000
     celldm(4)=   0.000000  celldm(5)=   0.000000  celldm(6)=   0.000000

     crystal axes: (cart. coord. in units of alat)
               a(1) = (   1.000000   0.000000   0.000000 )
               a(2) = (   0.000000   0.233944   0.000000 )
               a(3) = (   0.000000   0.000000   1.507987 )

     reciprocal axes: (cart. coord. in units 2 pi/alat)
               b(1) = (  1.000000  0.000000  0.000000 )
               b(2) = (  0.000000  4.274525  0.000000 )
               b(3) = (  0.000000  0.000000  0.663136 )

     PseudoPot. # 1 for Ta read from file:
     /ddn/data/physics/eamoujaes/PSEUDO-CREATED/Ta.upf
     MD5 check sum: d865b2c2c09566b116f2b8decb2c153d
     Pseudo is Projector augmented-wave + core cor, Zval = 13.0
     Generated using ATOMPAW code
     Shape of augmentation charge: SINC**2
     Using radial grid of 2342 points,  6 beta functions with:
                l(1) =   0
                l(2) =   0
                l(3) =   1
                l(4) =   1
                l(5) =   2
                l(6) =   2
     Q(r) pseudized with 0 coefficients

     PseudoPot. # 2 for Ni read from file:
     /ddn/data/physics/eamoujaes/PSEUDO-CREATED/Ni.upf
     MD5 check sum: 85a2a5d9d38f4289a1cc30d5adb66a03
     Pseudo is Projector augmented-wave + core cor, Zval = 18.0
     Generated using ATOMPAW code
     Shape of augmentation charge: SINC**2
     Using radial grid of 2342 points,  6 beta functions with:
                l(1) =   0
                l(2) =   0
                l(3) =   1
                l(4) =   1
                l(5) =   2
                l(6) =   2
     Q(r) pseudized with 0 coefficients

     PseudoPot. # 3 for Te read from file:
     /ddn/data/physics/eamoujaes/PSEUDO-CREATED/Te.upf
     MD5 check sum: 8d958f193a7511a138982c2e72838810
     Pseudo is Projector augmented-wave + core cor, Zval =  6.0
     Generated using ATOMPAW code
     Shape of augmentation charge: SINC**2
     Using radial grid of 2342 points,  4 beta functions with:
                l(1) =   0
                l(2) =   0
                l(3) =   1
                l(4) =   1
     Q(r) pseudized with 0 coefficients

     atomic species   valence    mass     pseudopotential
        Ta            13.00   180.94790     Ta( 1.00)
        Ni            18.00    58.69340     Ni( 1.00)
        Te             6.00   127.60000     Te( 1.00)

     No symmetry found

   Cartesian axes

     site n.     atom                  positions (alat units)
         1           Ta  tau(   1) = (   0.9271076   0.0551092   0.7495386  )
         2           Ta  tau(   2) = (   0.3958288   0.1653277   0.7584626  )
         3           Ta  tau(   3) = (   0.1364387   0.0551092   0.7495281  )
         4           Ta  tau(   4) = (   0.6677179   0.1653277   0.7584723  )
         5           Ni  tau(   5) = (   0.7748710   0.0551092   0.7084502  )
         6           Ni  tau(   6) = (   0.2435911   0.1653277   0.7995509  )
         7           Ni  tau(   7) = (   0.2886680   0.0551092   0.7084341  )
         8           Ni  tau(   8) = (   0.8199470   0.1653277   0.7995664  )
         9           Ni  tau(   9) = (   0.5317640   0.0551092   0.7449829  )
        10           Ni  tau(  10) = (   0.0004865   0.1653277   0.7630171  )
        11           Te  tau(  11) = (   0.8561042   0.1653277   0.6345776  )
        12           Te  tau(  12) = (   0.3248236   0.0551092   0.8734232  )
        13           Te  tau(  13) = (   0.6382022   0.0551092   0.6336185  )
        14           Te  tau(  14) = (   0.1069239   0.1653277   0.8743823  )
        15           Te  tau(  15) = (   0.2074261   0.1653277   0.6345641  )
        16           Te  tau(  16) = (   0.7387055   0.0551092   0.8734365  )
        17           Te  tau(  17) = (   0.4253475   0.0551092   0.6336087  )
        18           Te  tau(  18) = (   0.9566258   0.1653277   0.8743927  )
        19           Te  tau(  19) = (   0.0004999   0.0551092   0.6527900  )
        20           Te  tau(  20) = (   0.5317768   0.1653277   0.8552089  )

     number of k points=    12  Gaussian smearing, width (Ry)=  0.0020
                       cart. coord. in units 2pi/alat
        k(    1) = (   0.0000000   0.0000000   0.0000000), wk =   0.1000000
        k(    2) = (   0.0000000   0.4274525   0.0000000), wk =   0.2000000
        k(    3) = (   0.0000000   0.8549051   0.0000000), wk =   0.2000000
        k(    4) = (   0.0000000   1.2823576   0.0000000), wk =   0.2000000
        k(    5) = (   0.0000000   1.7098101   0.0000000), wk =   0.2000000
        k(    6) = (   0.0000000  -2.1372627   0.0000000), wk =   0.1000000
        k(    7) = (  -0.5000000   0.0000000   0.0000000), wk =   0.1000000
        k(    8) = (  -0.5000000   0.4274525   0.0000000), wk =   0.2000000
        k(    9) = (  -0.5000000   0.8549051   0.0000000), wk =   0.2000000
        k(   10) = (  -0.5000000   1.2823576   0.0000000), wk =   0.2000000
        k(   11) = (  -0.5000000   1.7098101   0.0000000), wk =   0.2000000
        k(   12) = (  -0.5000000  -2.1372627   0.0000000), wk =   0.1000000

     Initial potential from superposition of free atoms

     starting charge     219.9927, renormalised to     220.0000

     negative rho (up, down):  4.917E-02 0.000E+00
     Starting wfcs are  260 randomized atomic wfcs
     Checking if some PAW data can be deallocated...

     Self-consistent Calculation

     iteration #  1     ecut=    60.00 Ry     beta= 0.20
     Davidson diagonalization with overlap
     ethr =  1.00E-02,  avg # of iterations =  2.5

     negative rho (up, down):  5.003E-02 0.000E+00

     total energy              =   -9106.62993075 Ry
     estimated scf accuracy    <       9.06906240 Ry

[...]

     End of self-consistent calculation

          k = 0.0000 0.0000 0.0000 ( 85323 PWs)   bands (ev):

  -104.0406-103.1827-103.1747-103.0707-102.9168-102.8019 -68.8614 -68.7928
   -68.6619 -67.9407 -64.5869 -64.5312 -64.4057 -63.7798 -63.7279 -63.6499
   -63.6131 -63.5554 -63.5311 -63.4697 -63.4542 -63.4239 -63.3374 -63.2981
   -63.2888 -63.2572 -63.1889 -63.0949 -35.3384 -35.3044 -35.2782 -35.2531
   -35.2339 -35.2130 -35.1997 -35.1810 -35.0931 -35.0556 -34.5949 -34.4881
   -14.7070 -13.4038 -12.4334 -12.1994 -11.7788 -11.6650 -11.5400 -11.4565
   -11.3137 -11.1915  -7.0311  -6.3538  -5.7433  -5.6697  -5.4944  -5.4310
    -5.2322  -5.0557  -4.7862  -4.4983  -4.2830  -4.1647  -3.8682  -3.7548
    -3.7458  -3.6691  -3.5719  -3.5012  -3.4857  -3.3650  -3.2862  -3.1665
    -3.1124  -2.9552  -2.9068  -2.7553  -2.6771  -2.6212  -2.6139  -2.4474
    -2.3309  -2.2597  -2.1552  -2.1201  -2.0137  -1.9180  -1.8404  -1.8006
    -1.7504  -1.7158  -1.5517  -1.4963  -1.4741  -1.4084  -1.3085  -1.2131
    -1.1888  -1.1585  -1.0324  -0.9776  -0.9380  -0.8927  -0.6998  -0.6703
    -0.5565  -0.5019  -0.2844  -0.2242  -0.0627   0.0226   0.0783   0.4379
     0.5239   0.7135   0.7903   0.9888   1.2439   1.3260   1.4523   1.6483
     1.7318   1.8825   1.9383   2.3091   2.4771   2.6203   2.7758   2.8022
     2.9872   3.0876   3.1178   3.2046

[...]

          k =-0.5000 0.0000 0.0000 ( 85266 PWs)   bands (ev):

[...]

     the Fermi energy is     0.0728 ev

!    total energy              =   -9108.86222074 Ry
     total all-electron energy =     -9108.862221 Ry
     estimated scf accuracy    <          7.9E-09 Ry
     smearing contrib. (-TS)   =      -0.00026360 Ry
     internal energy E=F+TS    =   -9108.86195713 Ry

     The total energy is F=E-TS. E is the sum of the following terms:
     one-electron contribution =  -16452.30184463 Ry
     hartree contribution      =    8085.02800810 Ry
     xc contribution           =    -365.69484198 Ry
     ewald contribution        =    5891.84748427 Ry
     one-center paw contrib.   =   -6267.74076290 Ry

     convergence has been achieved in  29 iterations

[...]

     Forces acting on atoms (cartesian axes, Ry/au):

     atom    1 type  1   force =    -0.76967400   -0.09791632    0.81661404
     atom    2 type  1   force =    -0.00542997    0.02030282   -0.01437107
     atom    3 type  1   force =     0.03863633   -0.02773878    0.02247593
     atom    4 type  1   force =     0.01526997    0.02200824   -0.01645166
     atom    5 type  2   force =    -0.01137990   -0.02683165    0.00134037
     atom    6 type  2   force =     0.01345206    0.02738937   -0.02005056
     atom    7 type  2   force =    -0.00233756   -0.02671235    0.00583349
     atom    8 type  2   force =    -0.03521816    0.02911751   -0.00770914
     atom    9 type  2   force =    -0.00268544   -0.01101316    0.01000201
     atom   10 type  2   force =     0.33383197    0.07601378   -0.39309480
     atom   11 type  3   force =    -0.09212978    0.02910407   -0.00250467
     atom   12 type  3   force =    -0.00952506   -0.01681221   -0.02084802
     atom   13 type  3   force =     0.00529848   -0.01144768    0.02011494
     atom   14 type  3   force =     0.23754713    0.01212869    0.00937990
     atom   15 type  3   force =    -0.00124208    0.01776533    0.02297521
     atom   16 type  3   force =     0.00892620   -0.01692315   -0.02001031
     atom   17 type  3   force =    -0.00425319   -0.01032840    0.02053755
     atom   18 type  3   force =    -0.41323796    0.01810484    0.46710570
     atom   19 type  3   force =     0.69627578   -0.01689923   -0.88929870
     atom   20 type  3   force =    -0.00212482    0.01068828   -0.01204022

     Total force =     1.812546     Total SCF correction =     0.000395

     Computing stress (Cartesian axis) and pressure

     negative rho (up, down):  6.602E-02 0.000E+00
          total   stress  (Ry/bohr**3)                   (kbar)     P=       29.14
   0.00029937   0.00000777  -0.00021569           44.04        1.14      -31.73
   0.00000777  -0.00002563   0.00001724            1.14       -3.77        2.54
  -0.00021569   0.00001724   0.00032058          -31.73        2.54       47.16

     BFGS Geometry Optimization
     Energy error            =      0.0E+00 Ry
     Gradient error          =      8.9E-01 Ry/Bohr

     number of scf cycles    =   1
     number of bfgs steps    =   0

     energy             new  =   -9108.8622207363 Ry

     new trust radius        =       0.5000000000 bohr
     new conv_thr            =       0.0000000100 Ry

ATOMIC_POSITIONS (angstrom)
Ta           15.2115543221        0.8919878926       12.6351218546
Ta            6.5702786118        2.7495253615       12.5886300905
Ta            2.2742056897        0.9084261013       12.4489306660
Ta           11.0890301458        2.7499248354       12.5883028913
Ni           12.8617425597        0.9086385863       11.7620035599
Ni            4.0472511028        2.7511852981       13.2694473595
Ni            4.7919191792        0.9086665297       11.7627893796
Ni           13.6045112012        2.7515900923       13.2725952402
Ni            8.8277176349        0.9123438698       12.3705484431
Ni            0.0862728649        2.7625749576       12.5755322749
Te           14.1914621266        2.7515869460       10.5346700644
Te            5.3904907295        0.9109855147       14.4956887179
Te           10.5966742199        0.9122420884       10.5240455491
Te            1.8307925274        2.7476106756       14.5186920807
Te            3.4433977495        2.7489309884       10.5404151958
Te           12.2660803882        0.9109595280       14.4961053822
Te            7.0606221648        0.9125042649       10.5239819357
Te           15.7851060861        2.7490105141       14.6260807924
Te            0.1713928112        0.9109651321       10.6293119734
Te            8.8280602482        2.7472732773       14.1953575486

     Writing config-only to output data dir /ddn/data/physics/eamoujaes/2D-Ta2Ni3Te5/ELASTIC/C12/OUT/ta2ni3te5.save/
     NEW-OLD atomic charge density approx. for the potential

[...]

     Energy error            =      7.0E-01 Ry
     Gradient error          =      1.9E-01 Ry/Bohr

[...]

     energy             old  =   -9108.8622207363 Ry
     energy             new  =   -9109.5591062105 Ry

     CASE: energy            _new < energy            _old

[...]

     iteration #  1     ecut=    60.00 Ry     beta= 0.20
     Davidson diagonalization with overlap
     c_bands:  1 eigenvalues not converged
     ethr =  1.00E-06,  avg # of iterations = 11.8

[...]

     iteration #  1     ecut=    60.00 Ry     beta= 0.20
     Davidson diagonalization with overlap
     c_bands:  1 eigenvalues not converged
     ethr =  1.00E-06,  avg # of iterations = 11.4

[...]

     Threshold (ethr) on eigenvalues was too large:
     Diagonalizing with lowered threshold

     Davidson diagonalization with overlap
     ethr =  3.34E-08,  avg # of iterations =  4.2

[...]

     number of scf cycles    =  38
     number of bfgs steps    =  37

     energy             old  =   -9109.8133367197 Ry
     energy             new  =   -9109.8133603023 Ry

     CASE: energy            _new < energy            _old

     new trust radius        =       0.0059805793 bohr
     new conv_thr            =            1.0E-10 Ry

ATOMIC_POSITIONS (angstrom)
Ta           14.9598809472        0.8589806568       12.6949734992
Ta            6.6560050403        2.8007063093       12.3363301496
Ta            2.5984544090        0.8585738160       12.6814102083
Ta           10.8963222807        2.8016537144       12.3605098711
Ni           12.6319894833        0.8587132529       11.7593031118
Ni            4.3259497896        2.8006617701       13.2768544228
Ni            4.9232147397        0.8586495125       11.7295241211
Ni           13.2262611162        2.8015781379       13.3020554837
Ni            8.7713467000        0.8571764775       12.2728894311
Ni            0.4768256451        2.8021681897       12.7634302958
Te           13.9213015386        2.8010425081       10.6806053985
Te            5.6144363610        0.8582350600       14.3542550008
Te           10.4773564939        0.8592268437       10.3616080836
Te            2.1729744275        2.8003861391       14.6809808915
Te            3.6291106721        2.8006189787       10.6568841884
Te           11.9299889091        0.8589146763       14.3776840936
Te            7.0880681415        0.8582766471       10.3379415908
Te           15.3880147374        2.8015980554       14.6937441872
Te            0.4741992290        0.8596321758       10.9710850235
Te            8.7668617020        2.8001395326       14.0661819474

     Writing config-only to output data dir /ddn/data/physics/eamoujaes/2D-Ta2Ni3Te5/ELASTIC/C12/OUT/ta2ni3te5.save/
     NEW-OLD atomic charge density approx. for the potential

[...]

     Self-consistent Calculation

[...]

     Threshold (ethr) on eigenvalues was too large:
     Diagonalizing with lowered threshold

     Davidson diagonalization with overlap
     ethr =  6.06E-09,  avg # of iterations =  5.0

[...]

     total energy              =   -9109.81337752 Ry
     estimated scf accuracy    <          1.7E-10 Ry

     iteration # 17     ecut=    60.00 Ry     beta= 0.20
     Davidson diagonalization with overlap
     ethr =  1.00E-13,  avg # of iterations =  4.8

[...]

     End of self-consistent calculation

[...]

          k = 0.0000-2.1373 0.0000 ( 85666 PWs)   bands (ev):

[...]

          k =-0.5000-2.1373 0.0000 ( 85660 PWs)   bands (ev):

  -103.4307-103.4298-103.4205-103.4193-102.9398-102.9376 -68.7220 -68.7214
   -68.7199 -68.7184 -64.0037 -64.0022 -63.9939 -63.9914 -63.8488 -63.8460
   -63.8383 -63.8377 -63.6876 -63.6861 -63.6766 -63.6764 -63.3840 -63.3820
   -63.3727 -63.3707 -63.3135 -63.3110 -35.2234 -35.2217 -35.2205 -35.2190
   -35.2132 -35.2114 -35.2110 -35.2087 -35.1374 -35.1353 -35.1314 -35.1294
   -11.6986 -11.6978 -11.5106 -11.5098 -11.4652 -11.4647 -11.3811 -11.3810
   -11.1069 -11.1053  -6.3707  -6.3705  -5.9868  -5.9860  -5.4268  -5.4266
    -5.0399  -5.0392  -4.9369  -4.9368  -4.1789  -4.1763  -4.1521  -4.1489
    -3.7780  -3.7775  -3.5800  -3.5780  -3.5157  -3.5145  -3.4107  -3.4102
    -3.3406  -3.3404  -3.3209  -3.3201  -2.9257  -2.9247  -2.8844  -2.8828
    -2.6558  -2.6548  -2.5558  -2.5542  -2.3848  -2.3831  -2.3304  -2.3274
    -2.1794  -2.1772  -1.9781  -1.9758  -1.8820  -1.8796  -1.7250  -1.7226
    -1.6322  -1.6306  -1.4846  -1.4841  -1.2760  -1.2754  -1.2269  -1.2256
    -1.2216  -1.2200  -0.8293  -0.8251  -0.5996  -0.5967   0.2099   0.2124
     0.9514   0.9516   1.3450   1.3467   1.4019   1.4026   1.5079   1.5100
     2.0302   2.0333   2.1537   2.1572   2.3016   2.3047   2.8792   2.8806
     2.9742   2.9744   3.2809   3.2816

     the Fermi energy is     0.0048 ev

!    total energy              =   -9109.81337752 Ry
     total all-electron energy =     -9109.813378 Ry
     estimated scf accuracy    <          6.7E-11 Ry
     smearing contrib. (-TS)   =      -0.00002509 Ry
     internal energy E=F+TS    =   -9109.81335243 Ry

     The total energy is F=E-TS. E is the sum of the following terms:
     one-electron contribution =  -16401.96650145 Ry
     hartree contribution      =    8059.42197676 Ry
     xc contribution           =    -365.02693306 Ry
     ewald contribution        =    5865.45955998 Ry
     one-center paw contrib.   =   -6267.70145467 Ry

     convergence has been achieved in  17 iterations

     negative rho (up, down):  6.504E-02 0.000E+00

     Forces acting on atoms (cartesian axes, Ry/au):

     atom    1 type  1   force =     0.00088349    0.00017185    0.00035275
     atom    2 type  1   force =    -0.00002867   -0.00011512    0.00000025
     atom    3 type  1   force =    -0.00045039    0.00004002   -0.00001729
     atom    4 type  1   force =    -0.00005864   -0.00025780    0.00008816
     atom    5 type  2   force =    -0.00074493    0.00023666   -0.00014376
     atom    6 type  2   force =     0.00036336   -0.00004749   -0.00004019
     atom    7 type  2   force =     0.00058290    0.00003028    0.00000916
     atom    8 type  2   force =     0.00018461   -0.00022065    0.00046042
     atom    9 type  2   force =     0.00030745    0.00019463    0.00056705
     atom   10 type  2   force =    -0.00053106   -0.00009747   -0.00038156
     atom   11 type  3   force =     0.00000843   -0.00008056   -0.00035476
     atom   12 type  3   force =     0.00038516    0.00009046   -0.00020475
     atom   13 type  3   force =    -0.00065254    0.00006789   -0.00095712
     atom   14 type  3   force =     0.00008618   -0.00000635    0.00036284
     atom   15 type  3   force =    -0.00002029   -0.00002050    0.00003001
     atom   16 type  3   force =    -0.00001441    0.00015105    0.00015137
     atom   17 type  3   force =    -0.00037843    0.00005257    0.00062739
     atom   18 type  3   force =     0.00009079   -0.00013003   -0.00030454
     atom   19 type  3   force =    -0.00048865    0.00001923    0.00029973
     atom   20 type  3   force =     0.00047565   -0.00007865   -0.00054517

     Total force =     0.002628     Total SCF correction =     0.000055

     Computing stress (Cartesian axis) and pressure

     negative rho (up, down):  6.504E-02 0.000E+00
          total   stress  (Ry/bohr**3)                   (kbar)     P=        0.77
   0.00012667  -0.00000002   0.00000090           18.63       -0.00        0.13
  -0.00000002  -0.00007214  -0.00000008           -0.00      -10.61       -0.01
   0.00000090  -0.00000008  -0.00003884            0.13       -0.01       -5.71

     Energy error            =      1.7E-05 Ry
     Gradient error          =      9.6E-04 Ry/Bohr

     bfgs converged in  39 scf cycles and  38 bfgs steps
     (criteria: energy <  1.0E-04 Ry, force <  1.0E-03 Ry/Bohr)

     End of BFGS Geometry Optimization

     Final energy             =   -9109.8133775219 Ry

     File /ddn/data/physics/eamoujaes/2D-Ta2Ni3Te5/ELASTIC/C12/OUT/ta2ni3te5.bfgs deleted, as requested
Begin final coordinates

ATOMIC_POSITIONS (angstrom)
Ta           14.9598809472        0.8589806568       12.6949734992
Ta            6.6560050403        2.8007063093       12.3363301496
Ta            2.5984544090        0.8585738160       12.6814102083
Ta           10.8963222807        2.8016537144       12.3605098711
Ni           12.6319894833        0.8587132529       11.7593031118
Ni            4.3259497896        2.8006617701       13.2768544228
Ni            4.9232147397        0.8586495125       11.7295241211
Ni           13.2262611162        2.8015781379       13.3020554837
Ni            8.7713467000        0.8571764775       12.2728894311
Ni            0.4768256451        2.8021681897       12.7634302958
Te           13.9213015386        2.8010425081       10.6806053985
Te            5.6144363610        0.8582350600       14.3542550008
Te           10.4773564939        0.8592268437       10.3616080836
Te            2.1729744275        2.8003861391       14.6809808915
Te            3.6291106721        2.8006189787       10.6568841884
Te           11.9299889091        0.8589146763       14.3776840936
Te            7.0880681415        0.8582766471       10.3379415908
Te           15.3880147374        2.8015980554       14.6937441872
Te            0.4741992290        0.8596321758       10.9710850235
Te            8.7668617020        2.8001395326       14.0661819474
End final coordinates

     Writing all to output data dir /ddn/data/physics/eamoujaes/2D-Ta2Ni3Te5/ELASTIC/C12/OUT/ta2ni3te5.save/

     General routines

     Parallel routines

   This run was terminated on:  10:47: 7  31Jul2024

   JOB DONE.