     Program PWSCF v.7.1 starts on 31Jul2024 at 14:46:12

     Waiting for input...
     Reading input from standard input
Warning: card &CELL ignored
Warning: card CELL_DYNAMICS='BFGS' ignored
Warning: card PRESS=0.0 ignored
Warning: card CELL_DOFREE='2DXY' ignored
Warning: card / ignored

     Current dimensions of program PWSCF are:
     Max number of different atomic species (ntypx) = 10
     Max number of k-points (npk) =  40000
     Max angular momentum in pseudopotentials (lmaxx) =  4
     Message from routine read_pp_mesh:
     mismatch in mesh size, discarding the one in header
     Message from routine read_pp_mesh:
     mismatch in mesh size, discarding the one in header
     Message from routine read_pp_mesh:
     mismatch in mesh size, discarding the one in header

     K-points division:     npool     =       8
     R & G space division:  proc/nbgrp/npool/nimage =       3
     Subspace diagonalization in iterative solution of the eigenvalue problem:
     a serial algorithm will be used

     Using Slab Decomposition

     bravais-lattice index     =            0
     lattice parameter (alat)  =      32.6734  a.u.
     unit-cell volume          =   10904.5460 (a.u.)^3
     number of atoms/cell      =           20
     number of atomic types    =            3
     number of electrons       =       220.00
     number of Kohn-Sham states=          132
     kinetic-energy cutoff     =      60.0000  Ry
     charge density cutoff     =     480.0000  Ry
     scf convergence threshold =      1.0E-08
     mixing beta               =       0.2000
     number of iterations used =            8  plain     mixing
     energy convergence thresh.=      1.0E-04
     force convergence thresh. =      1.0E-03
     Exchange-correlation= SLA PW PBX PBC
                           (   1   4   3   4   0   0   0)
     nstep                     =         2000

     celldm(1)=  32.673365  celldm(2)=   0.000000  celldm(3)=   0.000000
     celldm(4)=   0.000000  celldm(5)=   0.000000  celldm(6)=   0.000000

     crystal axes: (cart. coord. in units of alat)
               a(1) = (   1.000000   0.000000   0.000000 )
               a(2) = (   0.000000   0.215905   0.000000 )
               a(3) = (   0.000000   0.000000   1.447981 )

     reciprocal axes: (cart. coord. in units 2 pi/alat)
               b(1) = (  1.000000  0.000000  0.000000 )
               b(2) = (  0.000000  4.631664  0.000000 )
               b(3) = (  0.000000  0.000000  0.690617 )

     PseudoPot. # 1 for Ta read from file:
     /ddn/data/physics/eamoujaes/PSEUDO-CREATED/Ta.upf
     MD5 check sum: d865b2c2c09566b116f2b8decb2c153d
     Pseudo is Projector augmented-wave + core cor, Zval = 13.0
     Generated using ATOMPAW code
     Shape of augmentation charge: SINC**2
     Using radial grid of 2342 points,  6 beta functions with:
                l(1) =   0
                l(2) =   0
                l(3) =   1
                l(4) =   1
                l(5) =   2
                l(6) =   2
     Q(r) pseudized with 0 coefficients

     PseudoPot. # 2 for Ni read from file:
     /ddn/data/physics/eamoujaes/PSEUDO-CREATED/Ni.upf
     MD5 check sum: 85a2a5d9d38f4289a1cc30d5adb66a03
     Pseudo is Projector augmented-wave + core cor, Zval = 18.0
     Generated using ATOMPAW code
     Shape of augmentation charge: SINC**2
     Using radial grid of 2342 points,  6 beta functions with:
                l(1) =   0
                l(2) =   0
                l(3) =   1
                l(4) =   1
                l(5) =   2
                l(6) =   2
     Q(r) pseudized with 0 coefficients

     PseudoPot. # 3 for Te read from file:
     /ddn/data/physics/eamoujaes/PSEUDO-CREATED/Te.upf
     MD5 check sum: 8d958f193a7511a138982c2e72838810
     Pseudo is Projector augmented-wave + core cor, Zval =  6.0
     Generated using ATOMPAW code
     Shape of augmentation charge: SINC**2
     Using radial grid of 2342 points,  4 beta functions with:
                l(1) =   0
                l(2) =   0
                l(3) =   1
                l(4) =   1
     Q(r) pseudized with 0 coefficients

     atomic species   valence    mass     pseudopotential
        Ta            13.00   180.94790     Ta( 1.00)
        Ni            18.00    58.69340     Ni( 1.00)
        Te             6.00   127.60000     Te( 1.00)

     No symmetry found

   Cartesian axes

     site n.     atom                  positions (alat units)
         1           Ta  tau(   1) = (   0.8902164   0.0529163   0.7197131  )
         2           Ta  tau(   2) = (   0.3800781   0.1587490   0.7282820  )
         3           Ta  tau(   3) = (   0.1310096   0.0529163   0.7197031  )
         4           Ta  tau(   4) = (   0.6411483   0.1587490   0.7282913  )
         5           Ni  tau(   5) = (   0.7440375   0.0529163   0.6802597  )
         6           Ni  tau(   6) = (   0.2338982   0.1587490   0.7677353  )
         7           Ni  tau(   7) = (   0.2771814   0.0529163   0.6802442  )
         8           Ni  tau(   8) = (   0.7873199   0.1587490   0.7677502  )
         9           Ni  tau(   9) = (   0.5106042   0.0529163   0.7153387  )
        10           Ni  tau(  10) = (   0.0004671   0.1587490   0.7326553  )
        11           Te  tau(  11) = (   0.8220383   0.1587490   0.6093266  )
        12           Te  tau(  12) = (   0.3118983   0.0529163   0.8386681  )
        13           Te  tau(  13) = (   0.6128070   0.0529163   0.6084057  )
        14           Te  tau(  14) = (   0.1026692   0.1587490   0.8395891  )
        15           Te  tau(  15) = (   0.1991723   0.1587490   0.6093137  )
        16           Te  tau(  16) = (   0.7093111   0.0529163   0.8386809  )
        17           Te  tau(  17) = (   0.4084221   0.0529163   0.6083963  )
        18           Te  tau(  18) = (   0.9185600   0.1587490   0.8395990  )
        19           Te  tau(  19) = (   0.0004800   0.0529163   0.6268143  )
        20           Te  tau(  20) = (   0.5106164   0.1587490   0.8211786  )

     number of k points=    12  Gaussian smearing, width (Ry)=  0.0020
                       cart. coord. in units 2pi/alat
        k(    1) = (   0.0000000   0.0000000   0.0000000), wk =   0.1000000
        k(    2) = (   0.0000000   0.4631664   0.0000000), wk =   0.2000000
        k(    3) = (   0.0000000   0.9263327   0.0000000), wk =   0.2000000
        k(    4) = (   0.0000000   1.3894991   0.0000000), wk =   0.2000000
        k(    5) = (   0.0000000   1.8526654   0.0000000), wk =   0.2000000
        k(    6) = (   0.0000000  -2.3158318   0.0000000), wk =   0.1000000
        k(    7) = (  -0.5000000   0.0000000   0.0000000), wk =   0.1000000
        k(    8) = (  -0.5000000   0.4631664   0.0000000), wk =   0.2000000
        k(    9) = (  -0.5000000   0.9263327   0.0000000), wk =   0.2000000
        k(   10) = (  -0.5000000   1.3894991   0.0000000), wk =   0.2000000
        k(   11) = (  -0.5000000   1.8526654   0.0000000), wk =   0.2000000
        k(   12) = (  -0.5000000  -2.3158318   0.0000000), wk =   0.1000000

     Initial potential from superposition of free atoms

     starting charge     219.9927, renormalised to     220.0000

     negative rho (up, down):  5.127E-02 0.000E+00
     Starting wfcs are  260 randomized atomic wfcs
     Checking if some PAW data can be deallocated...

     Self-consistent Calculation

     iteration #  1     ecut=    60.00 Ry     beta= 0.20
     Davidson diagonalization with overlap
     ethr =  1.00E-02,  avg # of iterations =  2.8

     negative rho (up, down):  5.182E-02 0.000E+00

     total energy              =   -9107.90734957 Ry
     estimated scf accuracy    <       7.76997225 Ry

[...]

     iteration # 11     ecut=    60.00 Ry     beta= 0.20
     Davidson diagonalization with overlap
     c_bands:  2 eigenvalues not converged
     ethr =  3.46E-06,  avg # of iterations =  9.3

[...]

     End of self-consistent calculation

          k = 0.0000 0.0000 0.0000 ( 85557 PWs)   bands (ev):

  -103.3861-103.3659-103.2521-103.2033-103.1475-102.9049 -68.8380 -68.7948
   -68.6806 -68.4399 -63.9597 -63.9480 -63.7914 -63.7759 -63.7678 -63.7350
   -63.7230 -63.7028 -63.6683 -63.6266 -63.5993 -63.5495 -63.5269 -63.4878
   -63.4191 -63.4116 -63.3614 -63.1863 -35.3255 -35.2742 -35.2630 -35.2494
   -35.2227 -35.1990 -35.1667 -35.1076 -35.0813 -35.0259 -34.9344 -34.9084
   -13.0747 -12.6246 -12.5039 -12.2540 -11.9887 -11.8526 -11.7186 -11.6869
   -11.5652 -11.3672  -6.2194  -5.8333  -5.7541  -5.7081  -5.5366  -5.3373
    -5.3007  -4.8069  -4.5977  -4.2205  -4.0192  -3.9411  -3.7814  -3.7038
    -3.6621  -3.5965  -3.5498  -3.4929  -3.4186  -3.3118  -3.0960  -2.9212
    -2.7704  -2.7648  -2.7172  -2.6660  -2.6303  -2.5581  -2.3229  -2.3138
    -2.2850  -2.2060  -2.0660  -2.0482  -2.0063  -1.9526  -1.9162  -1.7927
    -1.7508  -1.6913  -1.5181  -1.5142  -1.4096  -1.3895  -1.3426  -1.2966
    -1.2081  -1.1677  -1.1192  -1.0785  -1.0462  -0.8057  -0.7027  -0.6625
    -0.6311  -0.5408  -0.4391  -0.4139  -0.2180  -0.1207   0.0165   0.1526
     0.6752   0.8154   0.9887   1.0311   1.2154   1.4069   1.5768   1.5907
     1.6229   1.8387   2.1608   2.2410   2.4058   2.7968   2.9841   3.0444
     3.1585   3.2399   3.3140   3.4101

[...]

          k =-0.5000 0.0000 0.0000 ( 85656 PWs)   bands (ev):

[...]

     the Fermi energy is    -0.0365 ev

!    total energy              =   -9109.80894786 Ry
     total all-electron energy =     -9109.808948 Ry
     estimated scf accuracy    <          6.2E-09 Ry
     smearing contrib. (-TS)   =      -0.00000437 Ry
     internal energy E=F+TS    =   -9109.80894349 Ry

     The total energy is F=E-TS. E is the sum of the following terms:
     one-electron contribution =  -16391.66226600 Ry
     hartree contribution      =    8054.53458391 Ry
     xc contribution           =    -364.98581147 Ry
     ewald contribution        =    5860.02608437 Ry
     one-center paw contrib.   =   -6267.72153431 Ry

     convergence has been achieved in  27 iterations

[...]

     Forces acting on atoms (cartesian axes, Ry/au):

     atom    1 type  1   force =    -0.13482853   -0.01344117    0.07859265
     atom    2 type  1   force =     0.00242780    0.00999607   -0.00312354
     atom    3 type  1   force =     0.02134390   -0.01069542    0.00756647
     atom    4 type  1   force =     0.00843982    0.01052445   -0.00774388
     atom    5 type  2   force =    -0.00238270   -0.01121540    0.00195874
     atom    6 type  2   force =     0.00091240    0.01132020   -0.00430983
     atom    7 type  2   force =    -0.00463728   -0.01143317    0.00328513
     atom    8 type  2   force =    -0.01328787    0.01123508    0.00065437
     atom    9 type  2   force =    -0.00389648   -0.00490199    0.00415362
     atom   10 type  2   force =     0.08526964    0.00735950   -0.05608431
     atom   11 type  3   force =    -0.02141933    0.00862086    0.00713208
     atom   12 type  3   force =    -0.00141166   -0.00792747   -0.00923372
     atom   13 type  3   force =     0.00223132   -0.00524292    0.00841488
     atom   14 type  3   force =     0.02689790    0.00525233   -0.00873413
     atom   15 type  3   force =     0.00210894    0.00793226    0.00977748
     atom   16 type  3   force =     0.00208805   -0.00794921   -0.00906177
     atom   17 type  3   force =    -0.00085453   -0.00515509    0.00819855
     atom   18 type  3   force =    -0.07531842    0.00542095    0.05506126
     atom   19 type  3   force =     0.10960496   -0.00478545   -0.08062382
     atom   20 type  3   force =    -0.00328792    0.00508558   -0.00588022

     Total force =     0.257314     Total SCF correction =     0.000281

     Computing stress (Cartesian axis) and pressure

     negative rho (up, down):  6.550E-02 0.000E+00
          total   stress  (Ry/bohr**3)                   (kbar)     P=        0.35
   0.00007634   0.00000059  -0.00004002           11.23        0.09       -5.89
   0.00000059  -0.00004644   0.00000592            0.09       -6.83        0.87
  -0.00004002   0.00000592  -0.00002270           -5.89        0.87       -3.34

     BFGS Geometry Optimization
     Energy error            =      0.0E+00 Ry
     Gradient error          =      1.3E-01 Ry/Bohr

     number of scf cycles    =   1
     number of bfgs steps    =   0

     energy             new  =   -9109.8089478621 Ry

     new trust radius        =       0.1566403622 bohr
     new conv_thr            =       0.0000000100 Ry

ATOMIC_POSITIONS (angstrom)
Ta           15.3204926408        0.9078108045       12.4854296748
Ta            6.5728352490        2.7500593715       12.5903434268
Ta            2.2764503172        0.9092637894       12.4476699639
Ta           11.0899195067        2.7503389822       12.5880586021
Ni           12.8631472856        0.9089886321       11.7627261164
Ni            4.0445829488        2.7507600746       13.2718632858
Ni            4.7900127826        0.9088733898       11.7631613743
Ni           13.6057289765        2.7507150297       13.2747472864
Ni            8.8262847397        0.9123295448       12.3704036000
Ni            0.0531996528        2.7486641604       12.6379312713
Te           14.2017077517        2.7493316421       10.5390308873
Te            5.3919748349        0.9107285269       14.4956858331
Te           10.5966138832        0.9121491290       10.5237868368
Te            1.7893838411        2.7475490959       14.5118730509
Te            3.4448046935        2.7489672548       10.5402075612
Te           12.2650944861        0.9107170235       14.4959972632
Te            7.0611662220        0.9121956103       10.5235097585
Te           15.8420451155        2.7476383264       14.5458042932
Te            0.0662993691        0.9123912108       10.7949547747
Te            8.8268180665        2.7474608551       14.1950661389

     Writing config-only to output data dir /ddn/data/physics/eamoujaes/2D-Ta2Ni3Te5/ELASTIC/C12/OUT/ta2ni3te5.save/
     NEW-OLD atomic charge density approx. for the potential

[...]

     Energy error            =      4.4E-02 Ry
     Gradient error          =      4.0E-02 Ry/Bohr

[...]

     energy             old  =   -9109.8089478621 Ry
     energy             new  =   -9109.8530495847 Ry

     CASE: energy            _new < energy            _old

[...]

     Threshold (ethr) on eigenvalues was too large:
     Diagonalizing with lowered threshold

     Davidson diagonalization with overlap
     ethr =  6.39E-08,  avg # of iterations =  4.0

[...]

     number of scf cycles    =  17
     number of bfgs steps    =  16

     energy             old  =   -9109.8756836414 Ry
     energy             new  =   -9109.8757023641 Ry

     CASE: energy            _new < energy            _old

     new trust radius        =       0.0052441256 bohr
     new conv_thr            =            1.0E-10 Ry

ATOMIC_POSITIONS (angstrom)
Ta           15.2535130717        0.8963574422       12.4848781859
Ta            6.6063480226        2.7632933574       12.5498750321
Ta            2.3705498061        0.8963990889       12.4755819746
Ta           11.0147085814        2.7631421745       12.5606451774
Ni           12.7780594598        0.8967656012       11.7754216029
Ni            4.1323546595        2.7627939903       13.2651837837
Ni            4.8457045481        0.8969092879       11.7613826963
Ni           13.4896848903        2.7626062460       13.2801552726
Ni            8.8106119331        0.8982293916       12.3910189307
Ni            0.1655158680        2.7618781788       12.6380870934
Te           14.0911792737        2.7627015032       10.5697305248
Te            5.4488699709        0.8969073005       14.4674421336
Te           10.5401107153        0.8964134578       10.5103672199
Te            1.8909900386        2.7631340365       14.5232783337
Te            3.5292310105        2.7628609600       10.5584721946
Te           12.1679727639        0.8968089569       14.4801572157
Te            7.0879421181        0.8965249271       10.5023048986
Te           15.7370824570        2.7630132046       14.5311499268
Te            0.1617155128        0.8964413137       10.8262701310
Te            8.8064176618        2.7637520350       14.2068486717

     Writing config-only to output data dir /ddn/data/physics/eamoujaes/2D-Ta2Ni3Te5/ELASTIC/C12/OUT/ta2ni3te5.save/
     NEW-OLD atomic charge density approx. for the potential

[...]

     Self-consistent Calculation

[...]

     Threshold (ethr) on eigenvalues was too large:
     Diagonalizing with lowered threshold

     Davidson diagonalization with overlap
     ethr =  8.68E-09,  avg # of iterations =  5.0

[...]

     total energy              =   -9109.87571824 Ry
     estimated scf accuracy    <          1.6E-10 Ry

     iteration # 18     ecut=    60.00 Ry     beta= 0.20
     Davidson diagonalization with overlap
     ethr =  1.00E-13,  avg # of iterations =  1.0

[...]

     End of self-consistent calculation

[...]

          k = 0.0000-2.3158 0.0000 ( 85522 PWs)   bands (ev):

[...]

          k =-0.5000-2.3158 0.0000 ( 85612 PWs)   bands (ev):

  -103.3821-103.3820-103.3814-103.3703-102.9701-102.9667 -68.7002 -68.6981
   -68.6978 -68.6968 -63.9620 -63.9618 -63.9612 -63.9505 -63.7772 -63.7771
   -63.7763 -63.7664 -63.6491 -63.6490 -63.6483 -63.6375 -63.4581 -63.4560
   -63.4245 -63.4209 -63.2747 -63.2700 -35.1993 -35.1979 -35.1968 -35.1961
   -35.1923 -35.1910 -35.1895 -35.1890 -35.1178 -35.1168 -35.1126 -35.1125
   -11.6141 -11.6083 -11.3840 -11.3838 -11.3691 -11.3676 -11.2710 -11.2693
   -11.0804 -11.0785  -6.3219  -6.3215  -6.0438  -6.0405  -5.4483  -5.4453
    -5.0324  -5.0317  -4.8833  -4.8784  -4.1479  -4.1442  -4.1094  -4.1079
    -3.7681  -3.7671  -3.6360  -3.6343  -3.5602  -3.5595  -3.4294  -3.4283
    -3.4160  -3.4158  -3.2866  -3.2846  -2.9202  -2.9171  -2.8657  -2.8635
    -2.7298  -2.7280  -2.4788  -2.4780  -2.3290  -2.3284  -2.2329  -2.2311
    -2.2092  -2.2078  -1.9265  -1.9257  -1.8874  -1.8853  -1.7773  -1.7672
    -1.5655  -1.5649  -1.3876  -1.3854  -1.3347  -1.3328  -1.1948  -1.1907
    -1.1888  -1.1842  -0.9202  -0.9202  -0.6955  -0.6929   0.3061   0.3061
     1.0524   1.0542   1.2312   1.2315   1.3410   1.3419   1.8042   1.8066
     2.1027   2.1046   2.1909   2.1940   2.2025   2.2032   2.7722   2.7742
     2.9022   2.9027   3.5465   3.5646

     the Fermi energy is    -0.0198 ev

!    total energy              =   -9109.87571824 Ry
     total all-electron energy =     -9109.875718 Ry
     estimated scf accuracy    <          5.7E-11 Ry
     smearing contrib. (-TS)   =      -0.00000002 Ry
     internal energy E=F+TS    =   -9109.87571821 Ry

     The total energy is F=E-TS. E is the sum of the following terms:
     one-electron contribution =  -16416.12014729 Ry
     hartree contribution      =    8066.61560025 Ry
     xc contribution           =    -364.97889921 Ry
     ewald contribution        =    5872.32549970 Ry
     one-center paw contrib.   =   -6267.71777166 Ry

     convergence has been achieved in  18 iterations

     negative rho (up, down):  6.552E-02 0.000E+00

     Forces acting on atoms (cartesian axes, Ry/au):

     atom    1 type  1   force =    -0.00093419   -0.00000969    0.00032268
     atom    2 type  1   force =     0.00002076   -0.00001229   -0.00010568
     atom    3 type  1   force =    -0.00009432    0.00001933   -0.00005672
     atom    4 type  1   force =     0.00052432    0.00000727   -0.00045078
     atom    5 type  2   force =    -0.00011090   -0.00016727   -0.00012948
     atom    6 type  2   force =    -0.00005916    0.00017736   -0.00013175
     atom    7 type  2   force =    -0.00019350   -0.00015764   -0.00019259
     atom    8 type  2   force =    -0.00001437    0.00020399   -0.00029069
     atom    9 type  2   force =    -0.00014003   -0.00017645   -0.00008808
     atom   10 type  2   force =     0.00007373    0.00017868    0.00083380
     atom   11 type  3   force =     0.00024991    0.00011523    0.00041875
     atom   12 type  3   force =     0.00002076   -0.00011992   -0.00003571
     atom   13 type  3   force =     0.00004525    0.00003478   -0.00027890
     atom   14 type  3   force =     0.00044515   -0.00003927    0.00064096
     atom   15 type  3   force =    -0.00042056    0.00010136    0.00003478
     atom   16 type  3   force =     0.00041368   -0.00013553   -0.00023648
     atom   17 type  3   force =    -0.00005095    0.00004194   -0.00036086
     atom   18 type  3   force =    -0.00081515   -0.00002890    0.00052278
     atom   19 type  3   force =     0.00083764   -0.00013803   -0.00046679
     atom   20 type  3   force =     0.00020195    0.00010504    0.00005075

     Total force =     0.002463     Total SCF correction =     0.000042

     Computing stress (Cartesian axis) and pressure

     negative rho (up, down):  6.552E-02 0.000E+00
          total   stress  (Ry/bohr**3)                   (kbar)     P=       -0.95
   0.00004673   0.00000000  -0.00000006            6.87        0.00       -0.01
   0.00000000  -0.00002784  -0.00000004            0.00       -4.10       -0.01
  -0.00000006  -0.00000004  -0.00003825           -0.01       -0.01       -5.63

     Energy error            =      1.6E-05 Ry
     Gradient error          =      9.3E-04 Ry/Bohr

     bfgs converged in  18 scf cycles and  17 bfgs steps
     (criteria: energy <  1.0E-04 Ry, force <  1.0E-03 Ry/Bohr)

     End of BFGS Geometry Optimization

     Final energy             =   -9109.8757182365 Ry

     File /ddn/data/physics/eamoujaes/2D-Ta2Ni3Te5/ELASTIC/C12/OUT/ta2ni3te5.bfgs deleted, as requested
Begin final coordinates

ATOMIC_POSITIONS (angstrom)
Ta           15.2535130717        0.8963574422       12.4848781859
Ta            6.6063480226        2.7632933574       12.5498750321
Ta            2.3705498061        0.8963990889       12.4755819746
Ta           11.0147085814        2.7631421745       12.5606451774
Ni           12.7780594598        0.8967656012       11.7754216029
Ni            4.1323546595        2.7627939903       13.2651837837
Ni            4.8457045481        0.8969092879       11.7613826963
Ni           13.4896848903        2.7626062460       13.2801552726
Ni            8.8106119331        0.8982293916       12.3910189307
Ni            0.1655158680        2.7618781788       12.6380870934
Te           14.0911792737        2.7627015032       10.5697305248
Te            5.4488699709        0.8969073005       14.4674421336
Te           10.5401107153        0.8964134578       10.5103672199
Te            1.8909900386        2.7631340365       14.5232783337
Te            3.5292310105        2.7628609600       10.5584721946
Te           12.1679727639        0.8968089569       14.4801572157
Te            7.0879421181        0.8965249271       10.5023048986
Te           15.7370824570        2.7630132046       14.5311499268
Te            0.1617155128        0.8964413137       10.8262701310
Te            8.8064176618        2.7637520350       14.2068486717
End final coordinates

     Writing all to output data dir /ddn/data/physics/eamoujaes/2D-Ta2Ni3Te5/ELASTIC/C12/OUT/ta2ni3te5.save/

     General routines

     Parallel routines

   This run was terminated on:  16:55: 7  31Jul2024

   JOB DONE.