     Program PWSCF v.7.1 starts on 31Jul2024 at 16:55:10

     Waiting for input...
     Reading input from standard input
Warning: card &CELL ignored
Warning: card CELL_DYNAMICS='BFGS' ignored
Warning: card PRESS=0.0 ignored
Warning: card CELL_DOFREE='2DXY' ignored
Warning: card / ignored

     Current dimensions of program PWSCF are:
     Max number of different atomic species (ntypx) = 10
     Max number of k-points (npk) =  40000
     Max angular momentum in pseudopotentials (lmaxx) =  4
     Message from routine read_pp_mesh:
     mismatch in mesh size, discarding the one in header
     Message from routine read_pp_mesh:
     mismatch in mesh size, discarding the one in header
     Message from routine read_pp_mesh:
     mismatch in mesh size, discarding the one in header
     Message from routine setup:
     using ibrav=0 with symmetry is DISCOURAGED, use correct ibrav instead

     K-points division:     npool     =       8
     R & G space division:  proc/nbgrp/npool/nimage =       3
     Subspace diagonalization in iterative solution of the eigenvalue problem:
     a serial algorithm will be used

     Using Slab Decomposition

     bravais-lattice index     =            0
     lattice parameter (alat)  =      33.3357  a.u.
     unit-cell volume          =   10907.1424 (a.u.)^3
     number of atoms/cell      =           20
     number of atomic types    =            3
     number of electrons       =       220.00
     number of Kohn-Sham states=          132
     kinetic-energy cutoff     =      60.0000  Ry
     charge density cutoff     =     480.0000  Ry
     scf convergence threshold =      1.0E-08
     mixing beta               =       0.2000
     number of iterations used =            8  plain     mixing
     energy convergence thresh.=      1.0E-04
     force convergence thresh. =      1.0E-03
     Exchange-correlation= SLA PW PBX PBC
                           (   1   4   3   4   0   0   0)
     nstep                     =         2000

     celldm(1)=  33.335714  celldm(2)=   0.000000  celldm(3)=   0.000000
     celldm(4)=   0.000000  celldm(5)=   0.000000  celldm(6)=   0.000000

     crystal axes: (cart. coord. in units of alat)
               a(1) = (   1.000000   0.000000   0.000000 )
               a(2) = (   0.000000   0.207460   0.000000 )
               a(3) = (   0.000000   0.000000   1.419211 )

     reciprocal axes: (cart. coord. in units 2 pi/alat)
               b(1) = (  1.000000  0.000000  0.000000 )
               b(2) = (  0.000000  4.820204  0.000000 )
               b(3) = (  0.000000  0.000000  0.704617 )

     PseudoPot. # 1 for Ta read from file:
     /ddn/data/physics/eamoujaes/PSEUDO-CREATED/Ta.upf
     MD5 check sum: d865b2c2c09566b116f2b8decb2c153d
     Pseudo is Projector augmented-wave + core cor, Zval = 13.0
     Generated using ATOMPAW code
     Shape of augmentation charge: SINC**2
     Using radial grid of 2342 points,  6 beta functions with:
                l(1) =   0
                l(2) =   0
                l(3) =   1
                l(4) =   1
                l(5) =   2
                l(6) =   2
     Q(r) pseudized with 0 coefficients

     PseudoPot. # 2 for Ni read from file:
     /ddn/data/physics/eamoujaes/PSEUDO-CREATED/Ni.upf
     MD5 check sum: 85a2a5d9d38f4289a1cc30d5adb66a03
     Pseudo is Projector augmented-wave + core cor, Zval = 18.0
     Generated using ATOMPAW code
     Shape of augmentation charge: SINC**2
     Using radial grid of 2342 points,  6 beta functions with:
                l(1) =   0
                l(2) =   0
                l(3) =   1
                l(4) =   1
                l(5) =   2
                l(6) =   2
     Q(r) pseudized with 0 coefficients

     PseudoPot. # 3 for Te read from file:
     /ddn/data/physics/eamoujaes/PSEUDO-CREATED/Te.upf
     MD5 check sum: 8d958f193a7511a138982c2e72838810
     Pseudo is Projector augmented-wave + core cor, Zval =  6.0
     Generated using ATOMPAW code
     Shape of augmentation charge: SINC**2
     Using radial grid of 2342 points,  4 beta functions with:
                l(1) =   0
                l(2) =   0
                l(3) =   1
                l(4) =   1
     Q(r) pseudized with 0 coefficients

     atomic species   valence    mass     pseudopotential
        Ta            13.00   180.94790     Ta( 1.00)
        Ni            18.00    58.69340     Ni( 1.00)
        Te             6.00   127.60000     Te( 1.00)

      4 Sym. Ops. (no inversion) found ( 3 have fractional translation)

   Cartesian axes

     site n.     atom                  positions (alat units)
         1           Ta  tau(   1) = (   0.8725286   0.0518649   0.7054131  )
         2           Ta  tau(   2) = (   0.3725263   0.1555948   0.7138118  )
         3           Ta  tau(   3) = (   0.1284065   0.0518649   0.7054032  )
         4           Ta  tau(   4) = (   0.6284092   0.1555948   0.7138208  )
         5           Ni  tau(   5) = (   0.7292542   0.0518649   0.6667436  )
         6           Ni  tau(   6) = (   0.2292509   0.1555948   0.7524812  )
         7           Ni  tau(   7) = (   0.2716741   0.0518649   0.6667284  )
         8           Ni  tau(   8) = (   0.7716766   0.1555948   0.7524957  )
         9           Ni  tau(   9) = (   0.5004590   0.0518649   0.7011256  )
        10           Ni  tau(  10) = (   0.0004579   0.1555948   0.7180981  )
        11           Te  tau(  11) = (   0.8057052   0.1555948   0.5972198  )
        12           Te  tau(  12) = (   0.3057012   0.0518649   0.8220046  )
        13           Te  tau(  13) = (   0.6006311   0.0518649   0.5963172  )
        14           Te  tau(  14) = (   0.1006292   0.1555948   0.8229072  )
        15           Te  tau(  15) = (   0.1952149   0.1555948   0.5972072  )
        16           Te  tau(  16) = (   0.6952178   0.0518649   0.8220171  )
        17           Te  tau(  17) = (   0.4003072   0.0518649   0.5963080  )
        18           Te  tau(  18) = (   0.9003091   0.1555948   0.8229170  )
        19           Te  tau(  19) = (   0.0004704   0.0518649   0.6143601  )
        20           Te  tau(  20) = (   0.5004710   0.1555948   0.8048626  )

     number of k points=    12  Gaussian smearing, width (Ry)=  0.0020
                       cart. coord. in units 2pi/alat
        k(    1) = (   0.0000000   0.0000000   0.0000000), wk =   0.1000000
        k(    2) = (   0.0000000   0.4820204   0.0000000), wk =   0.2000000
        k(    3) = (   0.0000000   0.9640408   0.0000000), wk =   0.2000000
        k(    4) = (   0.0000000   1.4460612   0.0000000), wk =   0.2000000
        k(    5) = (   0.0000000   1.9280815   0.0000000), wk =   0.2000000
        k(    6) = (   0.0000000  -2.4101019   0.0000000), wk =   0.1000000
        k(    7) = (  -0.5000000   0.0000000   0.0000000), wk =   0.1000000
        k(    8) = (  -0.5000000   0.4820204   0.0000000), wk =   0.2000000
        k(    9) = (  -0.5000000   0.9640408   0.0000000), wk =   0.2000000
        k(   10) = (  -0.5000000   1.4460612   0.0000000), wk =   0.2000000
        k(   11) = (  -0.5000000   1.9280815   0.0000000), wk =   0.2000000
        k(   12) = (  -0.5000000  -2.4101019   0.0000000), wk =   0.1000000

     Initial potential from superposition of free atoms

     starting charge     219.9927, renormalised to     220.0000

     negative rho (up, down):  5.147E-02 0.000E+00
     Starting wfcs are  260 randomized atomic wfcs
     Checking if some PAW data can be deallocated...

     Self-consistent Calculation

     iteration #  1     ecut=    60.00 Ry     beta= 0.20
     Davidson diagonalization with overlap
     ethr =  1.00E-02,  avg # of iterations =  2.8

     negative rho (up, down):  5.200E-02 0.000E+00

     total energy              =   -9108.00882464 Ry
     estimated scf accuracy    <       7.60624491 Ry

[...]

     total energy              =   -9109.88360239 Ry
     estimated scf accuracy    <       0.00000001 Ry

     iteration # 21     ecut=    60.00 Ry     beta= 0.20
     Davidson diagonalization with overlap
     ethr =  5.10E-12,  avg # of iterations =  2.2

[...]

     End of self-consistent calculation

          k = 0.0000 0.0000 0.0000 ( 85739 PWs)   bands (ev):

  -103.3619-103.3602-103.3505-103.3488-102.9797-102.9689 -68.6905 -68.6886
   -68.6811 -68.6797 -63.9356 -63.9339 -63.9310 -63.9293 -63.7710 -63.7692
   -63.7128 -63.7111 -63.6550 -63.6533 -63.6136 -63.6119 -63.4810 -63.4701
   -63.4471 -63.4363 -63.2572 -63.2463 -35.1834 -35.1814 -35.1742 -35.1724
   -35.1250 -35.1203 -35.1180 -35.1162 -35.1149 -35.1102 -35.1084 -35.1069
   -12.9622 -12.6747 -12.5598 -12.1113 -12.0739 -11.8676 -11.8069 -11.7927
   -11.6701 -11.4744  -6.1877  -5.9363  -5.7476  -5.6968  -5.4552  -5.4135
    -5.4005  -4.7839  -4.6467  -4.2260  -4.1520  -3.8344  -3.7768  -3.7749
    -3.6785  -3.6539  -3.6538  -3.6031  -3.2587  -3.2567  -3.0838  -2.9203
    -2.8020  -2.7443  -2.7145  -2.6354  -2.5952  -2.4450  -2.3291  -2.3242
    -2.2714  -2.1442  -2.1403  -1.9992  -1.9597  -1.9163  -1.9104  -1.8429
    -1.8076  -1.6831  -1.6003  -1.5202  -1.3346  -1.3095  -1.3034  -1.2651
    -1.1638  -1.1627  -1.0859  -1.0668  -0.9971  -0.9159  -0.8061  -0.6947
    -0.6561  -0.5373  -0.4572  -0.3700  -0.2359   0.0485   0.0506   0.0549
     0.8063   0.8121   1.1000   1.1106   1.2163   1.3520   1.5114   1.5328
     1.7064   1.9119   2.1141   2.2114   2.3797   2.6287   3.0723   3.2926
     3.3272   3.3848   3.3861   3.6102

[...]

          k = 0.0000-2.4101 0.0000 ( 85394 PWs)   bands (ev):

[...]

          k =-0.5000 0.0000 0.0000 ( 85770 PWs)   bands (ev):

[...]

          k =-0.5000-2.4101 0.0000 ( 85332 PWs)   bands (ev):

  -103.3567-103.3557-103.3551-103.3538-102.9797-102.9688 -68.6889 -68.6870
   -68.6794 -68.6780 -63.9341 -63.9331 -63.9326 -63.9313 -63.7494 -63.7485
   -63.7478 -63.7467 -63.6270 -63.6261 -63.6254 -63.6243 -63.4810 -63.4700
   -63.4471 -63.4363 -63.2569 -63.2461 -35.1908 -35.1889 -35.1813 -35.1796
   -35.1741 -35.1719 -35.1648 -35.1630 -35.1160 -35.1124 -35.1068 -35.1034
   -11.5150 -11.5087 -11.3412 -11.3368 -11.3271 -11.3210 -11.2280 -11.2180
   -11.0497 -11.0438  -6.3166  -6.3128  -6.0773  -6.0717  -5.4809  -5.4733
    -5.0309  -5.0270  -4.8708  -4.8688  -4.1013  -4.0968  -4.0944  -4.0940
    -3.7882  -3.7856  -3.6350  -3.6322  -3.5452  -3.5407  -3.4768  -3.4704
    -3.4308  -3.4274  -3.2352  -3.2317  -2.9439  -2.9439  -2.8803  -2.8793
    -2.6986  -2.6971  -2.4694  -2.4681  -2.2896  -2.2886  -2.2474  -2.2427
    -2.1561  -2.1560  -1.9345  -1.9309  -1.8905  -1.8888  -1.7827  -1.7826
    -1.5269  -1.5234  -1.3714  -1.3671  -1.3357  -1.3301  -1.1876  -1.1834
    -1.1558  -1.1487  -0.9307  -0.9303  -0.7163  -0.7127   0.3538   0.3621
     1.0784   1.0804   1.1653   1.1656   1.2892   1.2914   1.8763   1.8791
     2.0609   2.0665   2.2496   2.2563   2.3363   2.3455   2.7384   2.7414
     2.8828   2.8831   3.5701   3.5730

     the Fermi energy is     0.0329 ev

!    total energy              =   -9109.88360239 Ry
     total all-electron energy =     -9109.883602 Ry
     estimated scf accuracy    <          4.6E-09 Ry
     smearing contrib. (-TS)   =      -0.00019536 Ry
     internal energy E=F+TS    =   -9109.88340703 Ry

     The total energy is F=E-TS. E is the sum of the following terms:
     one-electron contribution =  -16400.18368393 Ry
     hartree contribution      =    8058.71547930 Ry
     xc contribution           =    -364.94732575 Ry
     ewald contribution        =    5864.24616797 Ry
     one-center paw contrib.   =   -6267.71404462 Ry

     convergence has been achieved in  21 iterations

     negative rho (up, down):  6.582E-02 0.000E+00

     Forces acting on atoms (cartesian axes, Ry/au):

     atom    1 type  1   force =     0.00001261    0.00000000   -0.00001807
     atom    2 type  1   force =     0.00001261    0.00000000    0.00001807
     atom    3 type  1   force =     0.00003550    0.00000000   -0.00001724
     atom    4 type  1   force =     0.00003550    0.00000000    0.00001724
     atom    5 type  2   force =    -0.00006054    0.00000000    0.00003334
     atom    6 type  2   force =    -0.00006054    0.00000000   -0.00003334
     atom    7 type  2   force =    -0.00001793    0.00000000    0.00000141
     atom    8 type  2   force =    -0.00001793    0.00000000   -0.00000141
     atom    9 type  2   force =    -0.00000832    0.00000000    0.00001437
     atom   10 type  2   force =    -0.00000832    0.00000000   -0.00001437
     atom   11 type  3   force =    -0.00002704    0.00000000   -0.00000051
     atom   12 type  3   force =    -0.00002704    0.00000000    0.00000051
     atom   13 type  3   force =     0.00000598    0.00000000    0.00000221
     atom   14 type  3   force =     0.00000598    0.00000000   -0.00000221
     atom   15 type  3   force =    -0.00001945    0.00000000   -0.00001049
     atom   16 type  3   force =    -0.00001945    0.00000000    0.00001049
     atom   17 type  3   force =     0.00001381    0.00000000    0.00000267
     atom   18 type  3   force =     0.00001381    0.00000000   -0.00000267
     atom   19 type  3   force =     0.00006537    0.00000000   -0.00000850
     atom   20 type  3   force =     0.00006537    0.00000000    0.00000850

     Total force =     0.000163     Total SCF correction =     0.000259
     SCF correction compared to forces is large: reduce conv_thr to get better values

     Computing stress (Cartesian axis) and pressure

     negative rho (up, down):  6.582E-02 0.000E+00
          total   stress  (Ry/bohr**3)                   (kbar)     P=       -1.92
   0.00000002   0.00000000   0.00000000            0.00        0.00        0.00
   0.00000000  -0.00000026   0.00000000            0.00       -0.04        0.00
   0.00000000   0.00000000  -0.00003883            0.00        0.00       -5.71

     BFGS Geometry Optimization
     Energy error            =      0.0E+00 Ry
     Gradient error          =      6.5E-05 Ry/Bohr

     bfgs converged in   1 scf cycles and   0 bfgs steps
     (criteria: energy <  1.0E-04 Ry, force <  1.0E-03 Ry/Bohr)

     End of BFGS Geometry Optimization

     Final energy             =   -9109.8836023943 Ry
Begin final coordinates

ATOMIC_POSITIONS (angstrom)
Ta           15.3918408268        0.9149235643       12.4438402333
Ta            6.5715505136        2.7447696811       12.5919963342
Ta            2.2651556138        0.9149235643       12.4436659609
Ta           11.0854533467        2.7447696811       12.5921564874
Ni           12.8644081583        0.9149235643       11.7616895951
Ni            4.0441001260        2.7447696811       13.2741439515
Ni            4.7924667237        0.9149235643       11.7614229579
Ni           13.6127606136        2.7447696811       13.2744010088
Ni            8.8283466658        0.9149235643       12.3682055969
Ni            0.0080769022        2.7447696811       12.6676098121
Te           14.2130423748        2.7447696811       10.5352567511
Te            5.3927218546        0.9149235643       14.5005721060
Te           10.5954331180        0.9149235643       10.5193338760
Te            1.7751500843        2.7447696811       14.5164949560
Te            3.4436886923        2.7447696811       10.5350335412
Te           12.2639895367        0.9149235643       14.5007925479
Te            7.0616184217        0.9149235643       10.5191712715
Te           15.8819019065        2.7447696811       14.5166671281
Te            0.0082989229        0.9149235643       10.8376190653
Te            8.8285579610        2.7447696811       14.1981778186
End final coordinates

     Writing all to output data dir /ddn/data/physics/eamoujaes/2D-Ta2Ni3Te5/ELASTIC/C12/OUT/ta2ni3te5.save/

     General routines

     Parallel routines

   This run was terminated on:  17: 3:57  31Jul2024

   JOB DONE.