     Program PWSCF v.7.1 starts on 31Jul2024 at 17: 4: 0

     Waiting for input...
     Reading input from standard input
Warning: card &CELL ignored
Warning: card CELL_DYNAMICS='BFGS' ignored
Warning: card PRESS=0.0 ignored
Warning: card CELL_DOFREE='2DXY' ignored
Warning: card / ignored

     Current dimensions of program PWSCF are:
     Max number of different atomic species (ntypx) = 10
     Max number of k-points (npk) =  40000
     Max angular momentum in pseudopotentials (lmaxx) =  4
     Message from routine read_pp_mesh:
     mismatch in mesh size, discarding the one in header
     Message from routine read_pp_mesh:
     mismatch in mesh size, discarding the one in header
     Message from routine read_pp_mesh:
     mismatch in mesh size, discarding the one in header

     K-points division:     npool     =       8
     R & G space division:  proc/nbgrp/npool/nimage =       3
     Subspace diagonalization in iterative solution of the eigenvalue problem:
     a serial algorithm will be used

     Using Slab Decomposition

     bravais-lattice index     =            0
     lattice parameter (alat)  =      34.0075  a.u.
     unit-cell volume          =   10905.9114 (a.u.)^3
     number of atoms/cell      =           20
     number of atomic types    =            3
     number of electrons       =       220.00
     number of Kohn-Sham states=          132
     kinetic-energy cutoff     =      60.0000  Ry
     charge density cutoff     =     480.0000  Ry
     scf convergence threshold =      1.0E-08
     mixing beta               =       0.2000
     number of iterations used =            8  plain     mixing
     energy convergence thresh.=      1.0E-04
     force convergence thresh. =      1.0E-03
     Exchange-correlation= SLA PW PBX PBC
                           (   1   4   3   4   0   0   0)
     nstep                     =         2000

     celldm(1)=  34.007511  celldm(2)=   0.000000  celldm(3)=   0.000000
     celldm(4)=   0.000000  celldm(5)=   0.000000  celldm(6)=   0.000000

     crystal axes: (cart. coord. in units of alat)
               a(1) = (   1.000000   0.000000   0.000000 )
               a(2) = (   0.000000   0.199322   0.000000 )
               a(3) = (   0.000000   0.000000   1.391176 )

     reciprocal axes: (cart. coord. in units 2 pi/alat)
               b(1) = (  1.000000  0.000000  0.000000 )
               b(2) = (  0.000000  5.017006  0.000000 )
               b(3) = (  0.000000  0.000000  0.718816 )

     PseudoPot. # 1 for Ta read from file:
     /ddn/data/physics/eamoujaes/PSEUDO-CREATED/Ta.upf
     MD5 check sum: d865b2c2c09566b116f2b8decb2c153d
     Pseudo is Projector augmented-wave + core cor, Zval = 13.0
     Generated using ATOMPAW code
     Shape of augmentation charge: SINC**2
     Using radial grid of 2342 points,  6 beta functions with:
                l(1) =   0
                l(2) =   0
                l(3) =   1
                l(4) =   1
                l(5) =   2
                l(6) =   2
     Q(r) pseudized with 0 coefficients

     PseudoPot. # 2 for Ni read from file:
     /ddn/data/physics/eamoujaes/PSEUDO-CREATED/Ni.upf
     MD5 check sum: 85a2a5d9d38f4289a1cc30d5adb66a03
     Pseudo is Projector augmented-wave + core cor, Zval = 18.0
     Generated using ATOMPAW code
     Shape of augmentation charge: SINC**2
     Using radial grid of 2342 points,  6 beta functions with:
                l(1) =   0
                l(2) =   0
                l(3) =   1
                l(4) =   1
                l(5) =   2
                l(6) =   2
     Q(r) pseudized with 0 coefficients

     PseudoPot. # 3 for Te read from file:
     /ddn/data/physics/eamoujaes/PSEUDO-CREATED/Te.upf
     MD5 check sum: 8d958f193a7511a138982c2e72838810
     Pseudo is Projector augmented-wave + core cor, Zval =  6.0
     Generated using ATOMPAW code
     Shape of augmentation charge: SINC**2
     Using radial grid of 2342 points,  4 beta functions with:
                l(1) =   0
                l(2) =   0
                l(3) =   1
                l(4) =   1
     Q(r) pseudized with 0 coefficients

     atomic species   valence    mass     pseudopotential
        Ta            13.00   180.94790     Ta( 1.00)
        Ni            18.00    58.69340     Ni( 1.00)
        Te             6.00   127.60000     Te( 1.00)

     No symmetry found

   Cartesian axes

     site n.     atom                  positions (alat units)
         1           Ta  tau(   1) = (   0.8552923   0.0508404   0.6914781  )
         2           Ta  tau(   2) = (   0.3651673   0.1525211   0.6997108  )
         3           Ta  tau(   3) = (   0.1258699   0.0508404   0.6914684  )
         4           Ta  tau(   4) = (   0.6159954   0.1525211   0.6997197  )
         5           Ni  tau(   5) = (   0.7148482   0.0508404   0.6535724  )
         6           Ni  tau(   6) = (   0.2247222   0.1525211   0.7376164  )
         7           Ni  tau(   7) = (   0.2663073   0.0508404   0.6535576  )
         8           Ni  tau(   8) = (   0.7564326   0.1525211   0.7376306  )
         9           Ni  tau(   9) = (   0.4905727   0.0508404   0.6872753  )
        10           Ni  tau(  10) = (   0.0004488   0.1525211   0.7039125  )
        11           Te  tau(  11) = (   0.7897890   0.1525211   0.5854221  )
        12           Te  tau(  12) = (   0.2996623   0.0508404   0.8057664  )
        13           Te  tau(  13) = (   0.5887660   0.0508404   0.5845373  )
        14           Te  tau(  14) = (   0.0986414   0.1525211   0.8066512  )
        15           Te  tau(  15) = (   0.1913586   0.1525211   0.5854097  )
        16           Te  tau(  16) = (   0.6814842   0.0508404   0.8057786  )
        17           Te  tau(  17) = (   0.3923993   0.0508404   0.5845283  )
        18           Te  tau(  18) = (   0.8825240   0.1525211   0.8066608  )
        19           Te  tau(  19) = (   0.0004612   0.0508404   0.6022238  )
        20           Te  tau(  20) = (   0.4905845   0.1525211   0.7889630  )

     number of k points=    12  Gaussian smearing, width (Ry)=  0.0020
                       cart. coord. in units 2pi/alat
        k(    1) = (   0.0000000   0.0000000   0.0000000), wk =   0.1000000
        k(    2) = (   0.0000000   0.5017006   0.0000000), wk =   0.2000000
        k(    3) = (   0.0000000   1.0034012   0.0000000), wk =   0.2000000
        k(    4) = (   0.0000000   1.5051018   0.0000000), wk =   0.2000000
        k(    5) = (   0.0000000   2.0068023   0.0000000), wk =   0.2000000
        k(    6) = (   0.0000000  -2.5085029   0.0000000), wk =   0.1000000
        k(    7) = (  -0.5000000   0.0000000   0.0000000), wk =   0.1000000
        k(    8) = (  -0.5000000   0.5017006   0.0000000), wk =   0.2000000
        k(    9) = (  -0.5000000   1.0034012   0.0000000), wk =   0.2000000
        k(   10) = (  -0.5000000   1.5051018   0.0000000), wk =   0.2000000
        k(   11) = (  -0.5000000   2.0068023   0.0000000), wk =   0.2000000
        k(   12) = (  -0.5000000  -2.5085029   0.0000000), wk =   0.1000000

     Initial potential from superposition of free atoms

     starting charge     219.9927, renormalised to     220.0000

     negative rho (up, down):  5.129E-02 0.000E+00
     Starting wfcs are  260 randomized atomic wfcs
     Checking if some PAW data can be deallocated...

     Self-consistent Calculation

     iteration #  1     ecut=    60.00 Ry     beta= 0.20
     Davidson diagonalization with overlap
     ethr =  1.00E-02,  avg # of iterations =  2.9

     negative rho (up, down):  5.179E-02 0.000E+00

     total energy              =   -9107.95169619 Ry
     estimated scf accuracy    <       7.70846811 Ry

[...]

     iteration # 12     ecut=    60.00 Ry     beta= 0.20
     Davidson diagonalization with overlap
     c_bands:  3 eigenvalues not converged
     ethr =  7.47E-06,  avg # of iterations =  4.8

[...]

     End of self-consistent calculation

          k = 0.0000 0.0000 0.0000 ( 85695 PWs)   bands (ev):

  -103.5078-103.4642-103.3690-103.3527-103.0093-102.8265 -68.8243 -68.5994
   -68.5612 -68.5547 -64.0694 -64.0301 -63.9367 -63.9286 -63.9246 -63.8458
   -63.7965 -63.7810 -63.7371 -63.7158 -63.6719 -63.6219 -63.5094 -63.4853
   -63.3288 -63.2813 -63.2629 -63.1418 -35.3163 -35.2407 -35.2192 -35.1007
   -35.0770 -35.0635 -35.0621 -35.0245 -35.0244 -35.0175 -34.9941 -34.9837
   -13.0460 -12.8232 -12.5631 -12.2428 -12.1643 -11.9095 -11.8828 -11.8457
   -11.7149 -11.5702  -6.2615  -6.0601  -5.8188  -5.7230  -5.5463  -5.4751
    -5.3631  -4.8013  -4.7344  -4.2951  -4.2362  -3.9482  -3.8849  -3.8195
    -3.7666  -3.7316  -3.6509  -3.5491  -3.3130  -3.2681  -3.2121  -3.0674
    -2.7934  -2.7154  -2.6815  -2.6509  -2.6323  -2.3974  -2.3801  -2.3158
    -2.2932  -2.2395  -2.0893  -2.0091  -1.9644  -1.9274  -1.8916  -1.8559
    -1.7661  -1.7153  -1.6738  -1.5386  -1.4146  -1.3179  -1.2782  -1.2262
    -1.1504  -1.1282  -1.0041  -0.9780  -0.9078  -0.8908  -0.8462  -0.6453
    -0.6260  -0.5925  -0.5183  -0.4186  -0.0546  -0.0163   0.0697   0.3281
     0.7185   0.9522   1.1207   1.2447   1.2763   1.3057   1.4298   1.4905
     1.7297   1.9575   1.9907   2.3293   2.4994   2.5070   3.0997   3.2246
     3.4252   3.4901   3.5182   3.5427

[...]

          k =-0.5000 0.0000 0.0000 ( 85784 PWs)   bands (ev):

[...]

     the Fermi energy is     0.0574 ev

!    total energy              =   -9109.84312345 Ry
     total all-electron energy =     -9109.843123 Ry
     estimated scf accuracy    <          5.6E-09 Ry
     smearing contrib. (-TS)   =      -0.00025631 Ry
     internal energy E=F+TS    =   -9109.84286714 Ry

     The total energy is F=E-TS. E is the sum of the following terms:
     one-electron contribution =  -16439.32614103 Ry
     hartree contribution      =    8078.23488202 Ry
     xc contribution           =    -365.06773814 Ry
     ewald contribution        =    5884.02880072 Ry
     one-center paw contrib.   =   -6267.71267072 Ry

     convergence has been achieved in  28 iterations

[...]

     Forces acting on atoms (cartesian axes, Ry/au):

     atom    1 type  1   force =     0.04256270    0.01084554   -0.01526585
     atom    2 type  1   force =     0.00221840   -0.01179499    0.00542629
     atom    3 type  1   force =    -0.01478852    0.01182919   -0.00448366
     atom    4 type  1   force =    -0.01045123   -0.01241070    0.00815151
     atom    5 type  2   force =     0.00331355    0.01468752   -0.00361709
     atom    6 type  2   force =    -0.00375958   -0.01506496    0.00329546
     atom    7 type  2   force =     0.00335599    0.01488734   -0.00436410
     atom    8 type  2   force =     0.01103700   -0.01441082    0.00179999
     atom    9 type  2   force =     0.00185784    0.00681434   -0.00560949
     atom   10 type  2   force =    -0.02432246   -0.00606281    0.00946746
     atom   11 type  3   force =     0.01145298   -0.00925658   -0.01246300
     atom   12 type  3   force =     0.00282158    0.00948514    0.01152416
     atom   13 type  3   force =    -0.00191036    0.00572754   -0.01006276
     atom   14 type  3   force =    -0.00898871   -0.00537296    0.01196542
     atom   15 type  3   force =    -0.00032882   -0.00959086   -0.01179682
     atom   16 type  3   force =    -0.00382550    0.00970062    0.01131430
     atom   17 type  3   force =     0.00133406    0.00589268   -0.00959470
     atom   18 type  3   force =     0.02590980   -0.00561619   -0.00930201
     atom   19 type  3   force =    -0.03947979    0.00613289    0.01578324
     atom   20 type  3   force =     0.00199107   -0.00642191    0.00783166

     Total force =     0.096183     Total SCF correction =     0.000300

     Computing stress (Cartesian axis) and pressure

     negative rho (up, down):  6.552E-02 0.000E+00
          total   stress  (Ry/bohr**3)                   (kbar)     P=        0.81
  -0.00002091  -0.00000005   0.00001291           -3.08       -0.01        1.90
  -0.00000005   0.00005198  -0.00000700           -0.01        7.65       -1.03
   0.00001291  -0.00000700  -0.00001461            1.90       -1.03       -2.15

     BFGS Geometry Optimization
     Energy error            =      0.0E+00 Ry
     Gradient error          =      4.3E-02 Ry/Bohr

     number of scf cycles    =   1
     number of bfgs steps    =   0

     energy             new  =   -9109.8431234530 Ry

     new trust radius        =       0.0465000550 bohr
     new conv_thr            =       0.0000000100 Ry

ATOMIC_POSITIONS (angstrom)
Ta           15.4143640357        0.9206627784       12.4357618929
Ta            6.5727244382        2.7385280393       12.5948678021
Ta            2.2573298676        0.9211833036       12.4412933078
Ta           11.0799227961        2.7382022203       12.5964700812
Ni           12.8661616123        0.9226958631       11.7597755113
Ni            4.0421106443        2.7367976486       13.2758878323
Ni            4.7942426373        0.9228016049       11.7591135770
Ni           13.6186011410        2.7371438026       13.2753535225
Ni            8.8293297946        0.9185295555       12.3652371807
Ni           -0.0047939908        2.7415613781       12.6726197760
Te           14.2191030330        2.7398713090       10.5286616130
Te            5.3942149708        0.9199428857       14.5066704314
Te           10.5944221966        0.9179544457       10.5140088915
Te            1.7703934615        2.7419264313       14.5228267857
Te            3.4435146873        2.7396944182       10.5287909326
Te           12.2619651667        0.9200569110       14.5067798200
Te            7.0623243754        0.9180418369       10.5140939770
Te           15.8956127837        2.7417977214       14.5117447175
Te           -0.0125928803        0.9181689475       10.8459711943
Te            8.8296115922        2.7413713527       14.2023221531

     Writing config-only to output data dir /ddn/data/physics/eamoujaes/2D-Ta2Ni3Te5/ELASTIC/C12/OUT/ta2ni3te5.save/
     NEW-OLD atomic charge density approx. for the potential

[...]

     Energy error            =      8.3E-03 Ry
     Gradient error          =      3.6E-02 Ry/Bohr

[...]

     energy             old  =   -9109.8431234530 Ry
     energy             new  =   -9109.8514560210 Ry

     CASE: energy            _new < energy            _old

[...]

     iteration #  1     ecut=    60.00 Ry     beta= 0.20
     Davidson diagonalization with overlap
     c_bands:  2 eigenvalues not converged
     ethr =  1.00E-06,  avg # of iterations = 12.4

[...]

     Threshold (ethr) on eigenvalues was too large:
     Diagonalizing with lowered threshold

     Davidson diagonalization with overlap
     ethr =  8.06E-08,  avg # of iterations =  2.2

[...]

     WARNING: bfgs curvature condition failed, Theta= 0.953
     new trust radius        =       0.0103773403 bohr
     new conv_thr            =       0.0000000007 Ry

[...]

     number of scf cycles    =  21
     number of bfgs steps    =  20

     energy             old  =   -9109.8762263327 Ry
     energy             new  =   -9109.8762401937 Ry

     CASE: energy            _new < energy            _old

     new trust radius        =       0.0052009429 bohr
     new conv_thr            =            1.0E-10 Ry

ATOMIC_POSITIONS (angstrom)
Ta           15.5363761960        0.9325406939       12.4062643888
Ta            6.5374931497        2.7270784556       12.6298416707
Ta            2.1562268759        0.9326850147       12.4135844783
Ta           11.1564082461        2.7268649167       12.6222705538
Ni           12.9548146087        0.9323328091       11.7489932845
Ni            3.9556735179        2.7272965543       13.2823129215
Ni            4.7361717419        0.9325305788       11.7591579895
Ni           13.7348343063        2.7269966545       13.2720232492
Ni            8.8463545807        0.9331111192       12.3490649685
Ni           -0.1534282289        2.7271428950       12.6920839384
Te           14.3346771766        2.7269224071       10.5011448939
Te            5.3300533066        0.9326714133       14.5333647237
Te           10.6579604690        0.9331071494       10.5281423917
Te            1.6599964277        2.7262559396       14.5087799790
Te            3.3611414583        2.7271836260       10.5086851597
Te           12.3649438007        0.9324855253       14.5258061868
Te            7.0315709165        0.9334424502       10.5341923560
Te           16.0264564056        2.7260730858       14.5037968222
Te           -0.1488335310        0.9339084653       10.8445325656
Te            8.8496709389        2.7263027001       14.1942084781

     Writing config-only to output data dir /ddn/data/physics/eamoujaes/2D-Ta2Ni3Te5/ELASTIC/C12/OUT/ta2ni3te5.save/
     NEW-OLD atomic charge density approx. for the potential

[...]

     Self-consistent Calculation

[...]

     Threshold (ethr) on eigenvalues was too large:
     Diagonalizing with lowered threshold

     Davidson diagonalization with overlap
     ethr =  5.58E-09,  avg # of iterations =  5.0

[...]

     total energy              =   -9109.87625121 Ry
     estimated scf accuracy    <          4.3E-10 Ry

     iteration # 18     ecut=    60.00 Ry     beta= 0.20
     Davidson diagonalization with overlap
     ethr =  1.69E-13,  avg # of iterations =  1.0

[...]

     End of self-consistent calculation

[...]

          k = 0.0000-2.5085 0.0000 ( 85508 PWs)   bands (ev):

[...]

          k =-0.5000-2.5085 0.0000 ( 85504 PWs)   bands (ev):

  -103.3264-103.3212-103.3202-103.3175-102.9834-102.9832 -68.6551 -68.6535
   -68.6532 -68.6525 -63.8944 -63.8891 -63.8886 -63.8860 -63.7231 -63.7193
   -63.7179 -63.7164 -63.6015 -63.5960 -63.5955 -63.5926 -63.4798 -63.4784
   -63.4699 -63.4698 -63.2493 -63.2484 -35.1584 -35.1571 -35.1571 -35.1563
   -35.1349 -35.1337 -35.1331 -35.1321 -35.0942 -35.0931 -35.0919 -35.0913
   -11.4095 -11.4091 -11.2933 -11.2923 -11.2685 -11.2679 -11.1966 -11.1941
   -11.0013 -11.0001  -6.3143  -6.3135  -6.1095  -6.1073  -5.5303  -5.5285
    -5.0363  -5.0353  -4.8791  -4.8763  -4.0799  -4.0785  -4.0433  -4.0432
    -3.8070  -3.8058  -3.6225  -3.6215  -3.5428  -3.5425  -3.4837  -3.4829
    -3.4387  -3.4385  -3.1735  -3.1721  -2.9697  -2.9683  -2.9140  -2.9128
    -2.6409  -2.6384  -2.4706  -2.4705  -2.2520  -2.2488  -2.2293  -2.2289
    -2.1234  -2.1232  -1.9483  -1.9435  -1.8991  -1.8988  -1.7328  -1.7279
    -1.4809  -1.4792  -1.3894  -1.3860  -1.2905  -1.2900  -1.1955  -1.1944
    -1.1117  -1.1105  -0.9270  -0.9260  -0.7228  -0.7218   0.4087   0.4094
     1.0899   1.0900   1.1074   1.1097   1.2276   1.2293   1.8846   1.8879
     2.0123   2.0153   2.3322   2.3325   2.4767   2.4789   2.8088   2.8103
     2.9085   2.9095   3.5486   3.5529

     the Fermi energy is     0.0272 ev

!    total energy              =   -9109.87625121 Ry
     total all-electron energy =     -9109.876251 Ry
     estimated scf accuracy    <          8.4E-11 Ry
     smearing contrib. (-TS)   =      -0.00015969 Ry
     internal energy E=F+TS    =   -9109.87609152 Ry

     The total energy is F=E-TS. E is the sum of the following terms:
     one-electron contribution =  -16384.01178324 Ry
     hartree contribution      =    8050.73032854 Ry
     xc contribution           =    -364.91798576 Ry
     ewald contribution        =    5856.02672433 Ry
     one-center paw contrib.   =   -6267.70337539 Ry

     convergence has been achieved in  18 iterations

     negative rho (up, down):  6.539E-02 0.000E+00

     Forces acting on atoms (cartesian axes, Ry/au):

     atom    1 type  1   force =    -0.00016989    0.00013707    0.00033128
     atom    2 type  1   force =     0.00002797   -0.00015981    0.00013467
     atom    3 type  1   force =     0.00030662    0.00015674   -0.00000537
     atom    4 type  1   force =    -0.00034796   -0.00016149    0.00031039
     atom    5 type  2   force =     0.00032525    0.00039736    0.00016125
     atom    6 type  2   force =     0.00009411   -0.00040483    0.00011483
     atom    7 type  2   force =     0.00013885    0.00041567    0.00013108
     atom    8 type  2   force =     0.00027033   -0.00036125    0.00024992
     atom    9 type  2   force =     0.00015216   -0.00004095   -0.00014524
     atom   10 type  2   force =     0.00018907    0.00001983   -0.00055409
     atom   11 type  3   force =    -0.00059517   -0.00024234   -0.00048550
     atom   12 type  3   force =     0.00005830    0.00025163    0.00029451
     atom   13 type  3   force =    -0.00035336    0.00001187    0.00008633
     atom   14 type  3   force =    -0.00018319    0.00001145   -0.00016664
     atom   15 type  3   force =     0.00032832   -0.00026636   -0.00023736
     atom   16 type  3   force =    -0.00017608    0.00023138    0.00019962
     atom   17 type  3   force =     0.00010395   -0.00000572    0.00005617
     atom   18 type  3   force =     0.00029549    0.00001457   -0.00017864
     atom   19 type  3   force =    -0.00023592   -0.00004384   -0.00059183
     atom   20 type  3   force =    -0.00022885    0.00003904    0.00029462

     Total force =     0.001985     Total SCF correction =     0.000048

     Computing stress (Cartesian axis) and pressure

     negative rho (up, down):  6.539E-02 0.000E+00
          total   stress  (Ry/bohr**3)                   (kbar)     P=       -2.90
  -0.00004115   0.00000000   0.00000016           -6.05        0.00        0.02
   0.00000000   0.00002023   0.00000016            0.00        2.98        0.02
   0.00000016   0.00000016  -0.00003831            0.02        0.02       -5.64

     Energy error            =      1.1E-05 Ry
     Gradient error          =      6.0E-04 Ry/Bohr

     bfgs converged in  22 scf cycles and  21 bfgs steps
     (criteria: energy <  1.0E-04 Ry, force <  1.0E-03 Ry/Bohr)

     End of BFGS Geometry Optimization

     Final energy             =   -9109.8762512090 Ry

     File /ddn/data/physics/eamoujaes/2D-Ta2Ni3Te5/ELASTIC/C12/OUT/ta2ni3te5.bfgs deleted, as requested
Begin final coordinates

ATOMIC_POSITIONS (angstrom)
Ta           15.5363761960        0.9325406939       12.4062643888
Ta            6.5374931497        2.7270784556       12.6298416707
Ta            2.1562268759        0.9326850147       12.4135844783
Ta           11.1564082461        2.7268649167       12.6222705538
Ni           12.9548146087        0.9323328091       11.7489932845
Ni            3.9556735179        2.7272965543       13.2823129215
Ni            4.7361717419        0.9325305788       11.7591579895
Ni           13.7348343063        2.7269966545       13.2720232492
Ni            8.8463545807        0.9331111192       12.3490649685
Ni           -0.1534282289        2.7271428950       12.6920839384
Te           14.3346771766        2.7269224071       10.5011448939
Te            5.3300533066        0.9326714133       14.5333647237
Te           10.6579604690        0.9331071494       10.5281423917
Te            1.6599964277        2.7262559396       14.5087799790
Te            3.3611414583        2.7271836260       10.5086851597
Te           12.3649438007        0.9324855253       14.5258061868
Te            7.0315709165        0.9334424502       10.5341923560
Te           16.0264564056        2.7260730858       14.5037968222
Te           -0.1488335310        0.9339084653       10.8445325656
Te            8.8496709389        2.7263027001       14.1942084781
End final coordinates

     Writing all to output data dir /ddn/data/physics/eamoujaes/2D-Ta2Ni3Te5/ELASTIC/C12/OUT/ta2ni3te5.save/

     General routines

     Parallel routines

   This run was terminated on:  19:49:27  31Jul2024

   JOB DONE.