     Program PWSCF v.7.1 starts on 31Jul2024 at 19:49:32

     Waiting for input...
     Reading input from standard input
Warning: card &CELL ignored
Warning: card CELL_DYNAMICS='BFGS' ignored
Warning: card PRESS=0.0 ignored
Warning: card CELL_DOFREE='2DXY' ignored
Warning: card / ignored

     Current dimensions of program PWSCF are:
     Max number of different atomic species (ntypx) = 10
     Max number of k-points (npk) =  40000
     Max angular momentum in pseudopotentials (lmaxx) =  4
     Message from routine read_pp_mesh:
     mismatch in mesh size, discarding the one in header
     Message from routine read_pp_mesh:
     mismatch in mesh size, discarding the one in header
     Message from routine read_pp_mesh:
     mismatch in mesh size, discarding the one in header

     K-points division:     npool     =       8
     R & G space division:  proc/nbgrp/npool/nimage =       3
     Subspace diagonalization in iterative solution of the eigenvalue problem:
     a serial algorithm will be used

     Using Slab Decomposition

     bravais-lattice index     =            0
     lattice parameter (alat)  =      34.6878  a.u.
     unit-cell volume          =   10901.4105 (a.u.)^3
     number of atoms/cell      =           20
     number of atomic types    =            3
     number of electrons       =       220.00
     number of Kohn-Sham states=          132
     kinetic-energy cutoff     =      60.0000  Ry
     charge density cutoff     =     480.0000  Ry
     scf convergence threshold =      1.0E-08
     mixing beta               =       0.2000
     number of iterations used =            8  plain     mixing
     energy convergence thresh.=      1.0E-04
     force convergence thresh. =      1.0E-03
     Exchange-correlation= SLA PW PBX PBC
                           (   1   4   3   4   0   0   0)
     nstep                     =         2000

     celldm(1)=  34.687813  celldm(2)=   0.000000  celldm(3)=   0.000000
     celldm(4)=   0.000000  celldm(5)=   0.000000  celldm(6)=   0.000000

     crystal axes: (cart. coord. in units of alat)
               a(1) = (   1.000000   0.000000   0.000000 )
               a(2) = (   0.000000   0.191501   0.000000 )
               a(3) = (   0.000000   0.000000   1.363892 )

     reciprocal axes: (cart. coord. in units 2 pi/alat)
               b(1) = (  1.000000  0.000000  0.000000 )
               b(2) = (  0.000000  5.221893  0.000000 )
               b(3) = (  0.000000  0.000000  0.733196 )

     PseudoPot. # 1 for Ta read from file:
     /ddn/data/physics/eamoujaes/PSEUDO-CREATED/Ta.upf
     MD5 check sum: d865b2c2c09566b116f2b8decb2c153d
     Pseudo is Projector augmented-wave + core cor, Zval = 13.0
     Generated using ATOMPAW code
     Shape of augmentation charge: SINC**2
     Using radial grid of 2342 points,  6 beta functions with:
                l(1) =   0
                l(2) =   0
                l(3) =   1
                l(4) =   1
                l(5) =   2
                l(6) =   2
     Q(r) pseudized with 0 coefficients

     PseudoPot. # 2 for Ni read from file:
     /ddn/data/physics/eamoujaes/PSEUDO-CREATED/Ni.upf
     MD5 check sum: 85a2a5d9d38f4289a1cc30d5adb66a03
     Pseudo is Projector augmented-wave + core cor, Zval = 18.0
     Generated using ATOMPAW code
     Shape of augmentation charge: SINC**2
     Using radial grid of 2342 points,  6 beta functions with:
                l(1) =   0
                l(2) =   0
                l(3) =   1
                l(4) =   1
                l(5) =   2
                l(6) =   2
     Q(r) pseudized with 0 coefficients

     PseudoPot. # 3 for Te read from file:
     /ddn/data/physics/eamoujaes/PSEUDO-CREATED/Te.upf
     MD5 check sum: 8d958f193a7511a138982c2e72838810
     Pseudo is Projector augmented-wave + core cor, Zval =  6.0
     Generated using ATOMPAW code
     Shape of augmentation charge: SINC**2
     Using radial grid of 2342 points,  4 beta functions with:
                l(1) =   0
                l(2) =   0
                l(3) =   1
                l(4) =   1
     Q(r) pseudized with 0 coefficients

     atomic species   valence    mass     pseudopotential
        Ta            13.00   180.94790     Ta( 1.00)
        Ni            18.00    58.69340     Ni( 1.00)
        Te             6.00   127.60000     Te( 1.00)

     No symmetry found

   Cartesian axes

     site n.     atom                  positions (alat units)
         1           Ta  tau(   1) = (   0.8385182   0.0498433   0.6779168  )
         2           Ta  tau(   2) = (   0.3580056   0.1495298   0.6859880  )
         3           Ta  tau(   3) = (   0.1234014   0.0498433   0.6779073  )
         4           Ta  tau(   4) = (   0.6039144   0.1495298   0.6859968  )
         5           Ni  tau(   5) = (   0.7008285   0.0498433   0.6407545  )
         6           Ni  tau(   6) = (   0.2203149   0.1495298   0.7231501  )
         7           Ni  tau(   7) = (   0.2610845   0.0498433   0.6407400  )
         8           Ni  tau(   8) = (   0.7415973   0.1495298   0.7231641  )
         9           Ni  tau(   9) = (   0.4809516   0.0498433   0.6737963  )
        10           Ni  tau(  10) = (   0.0004400   0.1495298   0.6901073  )
        11           Te  tau(  11) = (   0.7742995   0.1495298   0.5739408  )
        12           Te  tau(  12) = (   0.2937852   0.0498433   0.7899636  )
        13           Te  tau(  13) = (   0.5772191   0.0498433   0.5730733  )
        14           Te  tau(  14) = (   0.0967068   0.1495298   0.7908311  )
        15           Te  tau(  15) = (   0.1876056   0.1495298   0.5739286  )
        16           Te  tau(  16) = (   0.6681188   0.0498433   0.7899756  )
        17           Te  tau(  17) = (   0.3847036   0.0498433   0.5730645  )
        18           Te  tau(  18) = (   0.8652158   0.1495298   0.7908404  )
        19           Te  tau(  19) = (   0.0004521   0.0498433   0.5904129  )
        20           Te  tau(  20) = (   0.4809631   0.1495298   0.7734897  )

     number of k points=    12  Gaussian smearing, width (Ry)=  0.0020
                       cart. coord. in units 2pi/alat
        k(    1) = (   0.0000000   0.0000000   0.0000000), wk =   0.1000000
        k(    2) = (   0.0000000   0.5221893   0.0000000), wk =   0.2000000
        k(    3) = (   0.0000000   1.0443787   0.0000000), wk =   0.2000000
        k(    4) = (   0.0000000   1.5665680   0.0000000), wk =   0.2000000
        k(    5) = (   0.0000000   2.0887574   0.0000000), wk =   0.2000000
        k(    6) = (   0.0000000  -2.6109467   0.0000000), wk =   0.1000000
        k(    7) = (  -0.5000000   0.0000000   0.0000000), wk =   0.1000000
        k(    8) = (  -0.5000000   0.5221893   0.0000000), wk =   0.2000000
        k(    9) = (  -0.5000000   1.0443787   0.0000000), wk =   0.2000000
        k(   10) = (  -0.5000000   1.5665680   0.0000000), wk =   0.2000000
        k(   11) = (  -0.5000000   2.0887574   0.0000000), wk =   0.2000000
        k(   12) = (  -0.5000000  -2.6109467   0.0000000), wk =   0.1000000

     Initial potential from superposition of free atoms

     starting charge     219.9927, renormalised to     220.0000

     negative rho (up, down):  5.074E-02 0.000E+00
     Starting wfcs are  260 randomized atomic wfcs
     Checking if some PAW data can be deallocated...

     Self-consistent Calculation

     iteration #  1     ecut=    60.00 Ry     beta= 0.20
     Davidson diagonalization with overlap
     ethr =  1.00E-02,  avg # of iterations =  3.0

     negative rho (up, down):  5.123E-02 0.000E+00

     total energy              =   -9107.83603262 Ry
     estimated scf accuracy    <       7.85703803 Ry

[...]

     iteration # 11     ecut=    60.00 Ry     beta= 0.20
     Davidson diagonalization with overlap
     c_bands:  2 eigenvalues not converged
     ethr =  6.77E-06,  avg # of iterations = 16.3

[...]

     End of self-consistent calculation

          k = 0.0000 0.0000 0.0000 ( 85593 PWs)   bands (ev):

  -103.6283-103.5633-103.3747-103.3475-103.0742-102.7263 -68.8547 -68.5035
   -68.4282 -68.4018 -64.1762 -64.1244 -64.0558 -63.9547 -63.9331 -63.9190
   -63.9131 -63.8392 -63.7923 -63.7189 -63.6875 -63.6251 -63.5636 -63.5506
   -63.3605 -63.2425 -63.1150 -63.0907 -35.3999 -35.2650 -35.2252 -35.0305
   -35.0078 -34.9588 -34.9342 -34.9227 -34.9168 -34.9018 -34.8607 -34.8354
   -13.1833 -12.9632 -12.6462 -12.4038 -12.2547 -12.0171 -11.9966 -11.8872
   -11.7525 -11.6620  -6.3725  -6.1645  -5.9180  -5.7915  -5.6641  -5.5411
    -5.3595  -4.8883  -4.8035  -4.4176  -4.2710  -4.1012  -3.9803  -3.9201
    -3.8594  -3.7853  -3.6254  -3.5458  -3.3968  -3.3684  -3.1857  -3.1755
    -2.8835  -2.7512  -2.7265  -2.6777  -2.5886  -2.4878  -2.4073  -2.3695
    -2.3132  -2.1972  -2.1233  -2.0833  -2.0056  -1.9551  -1.8945  -1.8818
    -1.8006  -1.7393  -1.6245  -1.5303  -1.4837  -1.3785  -1.2905  -1.2249
    -1.1433  -1.1217  -1.0155  -0.9537  -0.8594  -0.8168  -0.6826  -0.6322
    -0.5753  -0.5504  -0.5093  -0.3731  -0.1026   0.0522   0.1494   0.5761
     0.6529   1.0987   1.1170   1.2140   1.2967   1.3950   1.4598   1.4932
     1.7412   1.8927   2.0693   2.4221   2.5042   2.6511   2.8495   3.2152
     3.4934   3.5338   3.5637   3.6239

[...]

          k =-0.5000 0.0000 0.0000 ( 85498 PWs)   bands (ev):

[...]

     the Fermi energy is     0.1324 ev

!    total energy              =   -9109.75821448 Ry
     total all-electron energy =     -9109.758214 Ry
     estimated scf accuracy    <          7.2E-09 Ry
     smearing contrib. (-TS)   =      -0.00016568 Ry
     internal energy E=F+TS    =   -9109.75804880 Ry

     The total energy is F=E-TS. E is the sum of the following terms:
     one-electron contribution =  -16508.87915053 Ry
     hartree contribution      =    8113.01268056 Ry
     xc contribution           =    -365.30018418 Ry
     ewald contribution        =    5919.13044216 Ry
     one-center paw contrib.   =   -6267.72183681 Ry

     convergence has been achieved in  29 iterations

[...]

     Forces acting on atoms (cartesian axes, Ry/au):

     atom    1 type  1   force =     0.04817497    0.02356166   -0.01151660
     atom    2 type  1   force =     0.00535161   -0.02636404    0.01086053
     atom    3 type  1   force =    -0.02725645    0.02769055   -0.00991047
     atom    4 type  1   force =    -0.01761848   -0.02687405    0.01424730
     atom    5 type  2   force =     0.00203407    0.03242016   -0.00594483
     atom    6 type  2   force =    -0.00716536   -0.03259083    0.00690834
     atom    7 type  2   force =     0.00806346    0.03189544   -0.00861054
     atom    8 type  2   force =     0.02064114   -0.03113007    0.00525438
     atom    9 type  2   force =     0.00255382    0.01499834   -0.01015619
     atom   10 type  2   force =    -0.02008344   -0.01321075    0.00368999
     atom   11 type  3   force =     0.02006740   -0.02051341   -0.02755073
     atom   12 type  3   force =     0.00488338    0.02066469    0.02512323
     atom   13 type  3   force =    -0.00214979    0.01266956   -0.02176776
     atom   14 type  3   force =    -0.01259953   -0.01210508    0.02561745
     atom   15 type  3   force =    -0.00291880   -0.02148588   -0.02515509
     atom   16 type  3   force =    -0.00690131    0.02084643    0.02474233
     atom   17 type  3   force =     0.00095529    0.01300656   -0.02178125
     atom   18 type  3   force =     0.02831258   -0.01247247   -0.00347118
     atom   19 type  3   force =    -0.04675322    0.01303441    0.01056752
     atom   20 type  3   force =     0.00240866   -0.01404123    0.01885355

     Total force =     0.153469     Total SCF correction =     0.000353

     Computing stress (Cartesian axis) and pressure

     negative rho (up, down):  6.549E-02 0.000E+00
          total   stress  (Ry/bohr**3)                   (kbar)     P=        6.48
  -0.00000333  -0.00000016   0.00001303           -0.49       -0.02        1.92
  -0.00000016   0.00010921  -0.00001545           -0.02       16.07       -2.27
   0.00001303  -0.00001545   0.00002627            1.92       -2.27        3.87

     BFGS Geometry Optimization
     Energy error            =      0.0E+00 Ry
     Gradient error          =      4.8E-02 Ry/Bohr

     number of scf cycles    =   1
     number of bfgs steps    =   0

     energy             new  =   -9109.7582144800 Ry

     new trust radius        =       0.0548508056 bohr
     new conv_thr            =       0.0000000100 Ry

ATOMIC_POSITIONS (angstrom)
Ta           15.4173339204        0.9273918558       12.4377459133
Ta            6.5743824633        2.7308184313       12.5977434805
Ta            2.2507321197        0.9295767730       12.4384215670
Ta           11.0761300473        2.7305485482       12.5996958355
Ni           12.8654845440        0.9320795758       11.7585437254
Ni            4.0403083803        2.7275233576       13.2777996887
Ni            4.7967337247        0.9318019042       11.7568664589
Ni           13.6236834331        2.7282963595       13.2771815063
Ni            8.8296980912        0.9228603424       12.3628311743
Ni           -0.0025507972        2.7377788551       12.6695624688
Te           14.2236615876        2.7339144494       10.5206775336
Te            5.3953060277        0.9258588491       14.5138667447
Te           10.5942954972        0.9216280083       10.5078148757
Te            1.7684827022        2.7383639496       14.5300511270
Te            3.4421441291        2.7333998435       10.5217220427
Te           12.2603375190        0.9259550186       14.5138856243
Te            7.0621239405        0.9218063398       10.5076451299
Te           15.8968842799        2.7381695330       14.5148302595
Te           -0.0164418171        0.9218210778       10.8432111579
Te            8.8298325704        2.7373393820       14.2081546858

     Writing config-only to output data dir /ddn/data/physics/eamoujaes/2D-Ta2Ni3Te5/ELASTIC/C12/OUT/ta2ni3te5.save/
     NEW-OLD atomic charge density approx. for the potential

[...]

     Energy error            =      2.0E-02 Ry
     Gradient error          =      4.6E-02 Ry/Bohr

[...]

     energy             old  =   -9109.7582144801 Ry
     energy             new  =   -9109.7783767142 Ry

     CASE: energy            _new < energy            _old

[...]

     iteration #  2     ecut=    60.00 Ry     beta= 0.20
     Davidson diagonalization with overlap
     c_bands:  2 eigenvalues not converged
     ethr =  1.24E-05,  avg # of iterations =  7.2

[...]

     Threshold (ethr) on eigenvalues was too large:
     Diagonalizing with lowered threshold

     Davidson diagonalization with overlap
     ethr =  7.45E-08,  avg # of iterations =  3.9

[...]

     number of scf cycles    =  24
     number of bfgs steps    =  23

     energy             old  =   -9109.8557847978 Ry
     energy             new  =   -9109.8558046586 Ry

     CASE: energy            _new < energy            _old

     new trust radius        =       0.0050343950 bohr
     new conv_thr            =            1.0E-10 Ry

ATOMIC_POSITIONS (angstrom)
Ta           15.6850122982        0.9512363402       12.3713760241
Ta            6.5048123135        2.7085678254       12.6642268068
Ta            2.0458502776        0.9512412760       12.3856905716
Ta           11.2235015931        2.7082574704       12.6535007327
Ni           13.0467406982        0.9520110347       11.7394858618
Ni            3.8667734103        2.7078893689       13.2897381182
Ni            4.6798424259        0.9525425273       11.7571945279
Ni           13.8573703258        2.7074741636       13.2712764772
Ni            8.8647867659        0.9495639259       12.3264621222
Ni           -0.3135514870        2.7097405861       12.7157311364
Te           14.4592981792        2.7079398693       10.4665932494
Te            5.2727479843        0.9520050722       14.5653352026
Te           10.7221950845        0.9510966316       10.5383906511
Te            1.5458459714        2.7086381459       14.5010122521
Te            3.2744715901        2.7082280002       10.4804161601
Te           12.4593011395        0.9514286334       14.5536901992
Te            7.0006544284        0.9517086042       10.5474542201
Te           16.1725634304        2.7081150482       14.4892386723
Te           -0.3081676390        0.9519192900       10.8491853946
Te            8.8685135730        2.7073286404       14.1922526193

     Writing config-only to output data dir /ddn/data/physics/eamoujaes/2D-Ta2Ni3Te5/ELASTIC/C12/OUT/ta2ni3te5.save/
     NEW-OLD atomic charge density approx. for the potential

[...]

     Self-consistent Calculation

[...]

     Threshold (ethr) on eigenvalues was too large:
     Diagonalizing with lowered threshold

     Davidson diagonalization with overlap
     ethr =  7.06E-09,  avg # of iterations =  5.0

[...]

     total energy              =   -9109.85582206 Ry
     estimated scf accuracy    <          1.7E-10 Ry

     iteration # 18     ecut=    60.00 Ry     beta= 0.20
     Davidson diagonalization with overlap
     ethr =  1.00E-13,  avg # of iterations =  1.0

[...]

     End of self-consistent calculation

[...]

          k = 0.0000-2.6109 0.0000 ( 85648 PWs)   bands (ev):

[...]

          k =-0.5000-2.6109 0.0000 ( 85704 PWs)   bands (ev):

  -103.2801-103.2769-103.2757-103.2653-102.9670-102.9668 -68.6233 -68.6201
   -68.6200 -68.6194 -63.8415 -63.8383 -63.8372 -63.8273 -63.6760 -63.6756
   -63.6732 -63.6652 -63.5621 -63.5591 -63.5588 -63.5486 -63.4723 -63.4714
   -63.4656 -63.4653 -63.2148 -63.2146 -35.1274 -35.1252 -35.1247 -35.1237
   -35.1041 -35.1026 -35.1007 -35.1002 -35.0724 -35.0697 -35.0690 -35.0683
   -11.3192 -11.3185 -11.2307 -11.2278 -11.1895 -11.1871 -11.1498 -11.1455
   -10.9534 -10.9498  -6.3145  -6.3120  -6.1419  -6.1376  -5.5846  -5.5810
    -5.0591  -5.0577  -4.9054  -4.9003  -4.0585  -4.0567  -3.9967  -3.9958
    -3.8108  -3.8100  -3.5950  -3.5949  -3.5608  -3.5573  -3.4448  -3.4444
    -3.4420  -3.4410  -3.1071  -3.1055  -2.9784  -2.9760  -2.9341  -2.9314
    -2.5718  -2.5670  -2.4665  -2.4658  -2.2357  -2.2300  -2.1550  -2.1545
    -2.1058  -2.1043  -2.0137  -2.0072  -1.8192  -1.8172  -1.6498  -1.6436
    -1.4251  -1.4230  -1.3814  -1.3746  -1.2354  -1.2337  -1.1913  -1.1907
    -1.0439  -1.0437  -0.9026  -0.9014  -0.7107  -0.7096   0.4658   0.4662
     1.0260   1.0267   1.1252   1.1270   1.1662   1.1665   1.8697   1.8754
     1.9582   1.9603   2.3286   2.3290   2.5262   2.5294   3.0129   3.0134
     3.0500   3.0512   3.5182   3.5202

     the Fermi energy is     0.0747 ev

!    total energy              =   -9109.85582206 Ry
     total all-electron energy =     -9109.855822 Ry
     estimated scf accuracy    <          1.0E-10 Ry
     smearing contrib. (-TS)   =      -0.00000858 Ry
     internal energy E=F+TS    =   -9109.85581347 Ry

     The total energy is F=E-TS. E is the sum of the following terms:
     one-electron contribution =  -16369.27228957 Ry
     hartree contribution      =    8043.53829578 Ry
     xc contribution           =    -364.89624742 Ry
     ewald contribution        =    5848.46121013 Ry
     one-center paw contrib.   =   -6267.68678240 Ry

     convergence has been achieved in  18 iterations

     negative rho (up, down):  6.530E-02 0.000E+00

     Forces acting on atoms (cartesian axes, Ry/au):

     atom    1 type  1   force =    -0.00074075   -0.00025955   -0.00053473
     atom    2 type  1   force =     0.00009885    0.00027241    0.00043394
     atom    3 type  1   force =     0.00023215   -0.00013339   -0.00096500
     atom    4 type  1   force =     0.00027808    0.00021035    0.00034287
     atom    5 type  2   force =     0.00003790   -0.00059010    0.00002427
     atom    6 type  2   force =     0.00031860    0.00058449    0.00031677
     atom    7 type  2   force =     0.00016807   -0.00066651   -0.00011305
     atom    8 type  2   force =     0.00045757    0.00058873    0.00061773
     atom    9 type  2   force =     0.00008041    0.00011266    0.00011520
     atom   10 type  2   force =    -0.00010307   -0.00009347   -0.00026868
     atom   11 type  3   force =    -0.00079795    0.00032542   -0.00014084
     atom   12 type  3   force =     0.00004947   -0.00036122    0.00042017
     atom   13 type  3   force =    -0.00006883   -0.00007666   -0.00003550
     atom   14 type  3   force =    -0.00026909    0.00004329   -0.00001399
     atom   15 type  3   force =     0.00038914    0.00034805    0.00009747
     atom   16 type  3   force =    -0.00015824   -0.00031369   -0.00005977
     atom   17 type  3   force =     0.00000059   -0.00011658    0.00000998
     atom   18 type  3   force =     0.00069784    0.00011214    0.00028344
     atom   19 type  3   force =    -0.00020959    0.00001082   -0.00082266
     atom   20 type  3   force =    -0.00046117    0.00000281    0.00029239

     Total force =     0.002835     Total SCF correction =     0.000048

     Computing stress (Cartesian axis) and pressure

     negative rho (up, down):  6.530E-02 0.000E+00
          total   stress  (Ry/bohr**3)                   (kbar)     P=       -3.73
  -0.00008228  -0.00000002   0.00000027          -12.10       -0.00        0.04
  -0.00000002   0.00004439  -0.00000003           -0.00        6.53       -0.00
   0.00000027  -0.00000003  -0.00003809            0.04       -0.00       -5.60

     Energy error            =      1.7E-05 Ry
     Gradient error          =      9.6E-04 Ry/Bohr

     bfgs converged in  25 scf cycles and  24 bfgs steps
     (criteria: energy <  1.0E-04 Ry, force <  1.0E-03 Ry/Bohr)

     End of BFGS Geometry Optimization

     Final energy             =   -9109.8558220573 Ry

     File /ddn/data/physics/eamoujaes/2D-Ta2Ni3Te5/ELASTIC/C12/OUT/ta2ni3te5.bfgs deleted, as requested
Begin final coordinates

ATOMIC_POSITIONS (angstrom)
Ta           15.6850122982        0.9512363402       12.3713760241
Ta            6.5048123135        2.7085678254       12.6642268068
Ta            2.0458502776        0.9512412760       12.3856905716
Ta           11.2235015931        2.7082574704       12.6535007327
Ni           13.0467406982        0.9520110347       11.7394858618
Ni            3.8667734103        2.7078893689       13.2897381182
Ni            4.6798424259        0.9525425273       11.7571945279
Ni           13.8573703258        2.7074741636       13.2712764772
Ni            8.8647867659        0.9495639259       12.3264621222
Ni           -0.3135514870        2.7097405861       12.7157311364
Te           14.4592981792        2.7079398693       10.4665932494
Te            5.2727479843        0.9520050722       14.5653352026
Te           10.7221950845        0.9510966316       10.5383906511
Te            1.5458459714        2.7086381459       14.5010122521
Te            3.2744715901        2.7082280002       10.4804161601
Te           12.4593011395        0.9514286334       14.5536901992
Te            7.0006544284        0.9517086042       10.5474542201
Te           16.1725634304        2.7081150482       14.4892386723
Te           -0.3081676390        0.9519192900       10.8491853946
Te            8.8685135730        2.7073286404       14.1922526193
End final coordinates

     Writing all to output data dir /ddn/data/physics/eamoujaes/2D-Ta2Ni3Te5/ELASTIC/C12/OUT/ta2ni3te5.save/

     General routines

     Parallel routines

   This run was terminated on:  23: 3:42  31Jul2024

   JOB DONE.