     Program PWSCF v.7.1 starts on 31Jul2024 at 23: 4: 5

     Waiting for input...
     Reading input from standard input
Warning: card &CELL ignored
Warning: card CELL_DYNAMICS='BFGS' ignored
Warning: card PRESS=0.0 ignored
Warning: card CELL_DOFREE='2DXY' ignored
Warning: card / ignored

     Current dimensions of program PWSCF are:
     Max number of different atomic species (ntypx) = 10
     Max number of k-points (npk) =  40000
     Max angular momentum in pseudopotentials (lmaxx) =  4
     Message from routine read_pp_mesh:
     mismatch in mesh size, discarding the one in header
     Message from routine read_pp_mesh:
     mismatch in mesh size, discarding the one in header
     Message from routine read_pp_mesh:
     mismatch in mesh size, discarding the one in header

     K-points division:     npool     =       8
     R & G space division:  proc/nbgrp/npool/nimage =       3
     Subspace diagonalization in iterative solution of the eigenvalue problem:
     a serial algorithm will be used

     Using Slab Decomposition

     bravais-lattice index     =            0
     lattice parameter (alat)  =      35.3783  a.u.
     unit-cell volume          =   10893.2149 (a.u.)^3
     number of atoms/cell      =           20
     number of atomic types    =            3
     number of electrons       =       220.00
     number of Kohn-Sham states=          132
     kinetic-energy cutoff     =      60.0000  Ry
     charge density cutoff     =     480.0000  Ry
     scf convergence threshold =      1.0E-08
     mixing beta               =       0.2000
     number of iterations used =            8  plain     mixing
     energy convergence thresh.=      1.0E-04
     force convergence thresh. =      1.0E-03
     Exchange-correlation= SLA PW PBX PBC
                           (   1   4   3   4   0   0   0)
     nstep                     =         2000

     celldm(1)=  35.378319  celldm(2)=   0.000000  celldm(3)=   0.000000
     celldm(4)=   0.000000  celldm(5)=   0.000000  celldm(6)=   0.000000

     crystal axes: (cart. coord. in units of alat)
               a(1) = (   1.000000   0.000000   0.000000 )
               a(2) = (   0.000000   0.183961   0.000000 )
               a(3) = (   0.000000   0.000000   1.337272 )

     reciprocal axes: (cart. coord. in units 2 pi/alat)
               b(1) = (  1.000000  0.000000  0.000000 )
               b(2) = (  0.000000  5.435947  0.000000 )
               b(3) = (  0.000000  0.000000  0.747791 )

     PseudoPot. # 1 for Ta read from file:
     /ddn/data/physics/eamoujaes/PSEUDO-CREATED/Ta.upf
     MD5 check sum: d865b2c2c09566b116f2b8decb2c153d
     Pseudo is Projector augmented-wave + core cor, Zval = 13.0
     Generated using ATOMPAW code
     Shape of augmentation charge: SINC**2
     Using radial grid of 2342 points,  6 beta functions with:
                l(1) =   0
                l(2) =   0
                l(3) =   1
                l(4) =   1
                l(5) =   2
                l(6) =   2
     Q(r) pseudized with 0 coefficients

     PseudoPot. # 2 for Ni read from file:
     /ddn/data/physics/eamoujaes/PSEUDO-CREATED/Ni.upf
     MD5 check sum: 85a2a5d9d38f4289a1cc30d5adb66a03
     Pseudo is Projector augmented-wave + core cor, Zval = 18.0
     Generated using ATOMPAW code
     Shape of augmentation charge: SINC**2
     Using radial grid of 2342 points,  6 beta functions with:
                l(1) =   0
                l(2) =   0
                l(3) =   1
                l(4) =   1
                l(5) =   2
                l(6) =   2
     Q(r) pseudized with 0 coefficients

     PseudoPot. # 3 for Te read from file:
     /ddn/data/physics/eamoujaes/PSEUDO-CREATED/Te.upf
     MD5 check sum: 8d958f193a7511a138982c2e72838810
     Pseudo is Projector augmented-wave + core cor, Zval =  6.0
     Generated using ATOMPAW code
     Shape of augmentation charge: SINC**2
     Using radial grid of 2342 points,  4 beta functions with:
                l(1) =   0
                l(2) =   0
                l(3) =   1
                l(4) =   1
     Q(r) pseudized with 0 coefficients

     atomic species   valence    mass     pseudopotential
        Ta            13.00   180.94790     Ta( 1.00)
        Ni            18.00    58.69340     Ni( 1.00)
        Te             6.00   127.60000     Te( 1.00)

     No symmetry found

   Cartesian axes

     site n.     atom                  positions (alat units)
         1           Ta  tau(   1) = (   0.8221522   0.0488705   0.6646853  )
         2           Ta  tau(   2) = (   0.3510181   0.1466113   0.6725991  )
         3           Ta  tau(   3) = (   0.1209929   0.0488705   0.6646760  )
         4           Ta  tau(   4) = (   0.5921274   0.1466113   0.6726076  )
         5           Ni  tau(   5) = (   0.6871499   0.0488705   0.6282484  )
         6           Ni  tau(   6) = (   0.2160148   0.1466113   0.7090359  )
         7           Ni  tau(   7) = (   0.2559887   0.0488705   0.6282342  )
         8           Ni  tau(   8) = (   0.7271230   0.1466113   0.7090496  )
         9           Ni  tau(   9) = (   0.4715644   0.0488705   0.6606453  )
        10           Ni  tau(  10) = (   0.0004314   0.1466113   0.6766380  )
        11           Te  tau(  11) = (   0.7591869   0.1466113   0.5627387  )
        12           Te  tau(  12) = (   0.2880512   0.0488705   0.7745453  )
        13           Te  tau(  13) = (   0.5659530   0.0488705   0.5618882  )
        14           Te  tau(  14) = (   0.0948193   0.1466113   0.7753958  )
        15           Te  tau(  15) = (   0.1839440   0.1466113   0.5627268  )
        16           Te  tau(  16) = (   0.6550787   0.0488705   0.7745571  )
        17           Te  tau(  17) = (   0.3771950   0.0488705   0.5618795  )
        18           Te  tau(  18) = (   0.8483288   0.1466113   0.7754050  )
        19           Te  tau(  19) = (   0.0004433   0.0488705   0.5788893  )
        20           Te  tau(  20) = (   0.4715757   0.1466113   0.7583930  )

     number of k points=    12  Gaussian smearing, width (Ry)=  0.0020
                       cart. coord. in units 2pi/alat
        k(    1) = (   0.0000000   0.0000000   0.0000000), wk =   0.1000000
        k(    2) = (   0.0000000   0.5435947   0.0000000), wk =   0.2000000
        k(    3) = (   0.0000000   1.0871893   0.0000000), wk =   0.2000000
        k(    4) = (   0.0000000   1.6307840   0.0000000), wk =   0.2000000
        k(    5) = (   0.0000000   2.1743786   0.0000000), wk =   0.2000000
        k(    6) = (   0.0000000  -2.7179733   0.0000000), wk =   0.1000000
        k(    7) = (  -0.5000000   0.0000000   0.0000000), wk =   0.1000000
        k(    8) = (  -0.5000000   0.5435947   0.0000000), wk =   0.2000000
        k(    9) = (  -0.5000000   1.0871893   0.0000000), wk =   0.2000000
        k(   10) = (  -0.5000000   1.6307840   0.0000000), wk =   0.2000000
        k(   11) = (  -0.5000000   2.1743786   0.0000000), wk =   0.2000000
        k(   12) = (  -0.5000000  -2.7179733   0.0000000), wk =   0.1000000

     Initial potential from superposition of free atoms

     starting charge     219.9927, renormalised to     220.0000

     negative rho (up, down):  5.024E-02 0.000E+00
     Starting wfcs are  260 randomized atomic wfcs
     Checking if some PAW data can be deallocated...

     Self-consistent Calculation

     iteration #  1     ecut=    60.00 Ry     beta= 0.20
     Davidson diagonalization with overlap
     ethr =  1.00E-02,  avg # of iterations =  2.8

     negative rho (up, down):  5.083E-02 0.000E+00

     total energy              =   -9107.68434955 Ry
     estimated scf accuracy    <       8.07904424 Ry

[...]

     iteration # 11     ecut=    60.00 Ry     beta= 0.20
     Davidson diagonalization with overlap
     c_bands:  2 eigenvalues not converged
     ethr =  5.19E-06,  avg # of iterations = 17.1

[...]

     End of self-consistent calculation

          k = 0.0000 0.0000 0.0000 ( 85239 PWs)   bands (ev):

  -103.7232-103.6448-103.4014-103.3611-103.1317-102.6272 -68.8219 -68.4139
   -68.3252 -68.2568 -64.2693 -64.2061 -64.1525 -64.0424 -64.0157 -63.9612
   -63.9278 -63.9225 -63.8166 -63.7355 -63.7179 -63.6454 -63.6317 -63.6089
   -63.4109 -63.1521 -63.0381 -62.9733 -35.4130 -35.2510 -35.1787 -34.9755
   -34.9454 -34.8797 -34.8533 -34.8415 -34.7969 -34.7859 -34.7564 -34.6918
   -13.3389 -13.1078 -12.7678 -12.5505 -12.3716 -12.1467 -12.1117 -11.9433
   -11.7785 -11.7677  -6.4952  -6.2666  -6.0330  -5.8955  -5.7827  -5.6161
    -5.4083  -5.0118  -4.8608  -4.5225  -4.3472  -4.2187  -4.0975  -4.0264
    -3.9494  -3.8299  -3.6252  -3.5747  -3.4624  -3.4297  -3.2513  -3.1729
    -2.9829  -2.8195  -2.7861  -2.6994  -2.6430  -2.5421  -2.4983  -2.4296
    -2.2867  -2.2062  -2.1372  -2.0899  -2.0851  -2.0102  -1.9249  -1.8827
    -1.8075  -1.7780  -1.5934  -1.5224  -1.4489  -1.4435  -1.3157  -1.3047
    -1.1643  -1.0633  -1.0314  -0.9777  -0.8132  -0.7983  -0.6318  -0.6083
    -0.5055  -0.4282  -0.3968  -0.1819  -0.1666   0.0388   0.3181   0.4352
     0.9885   1.0613   1.1553   1.3008   1.3336   1.3908   1.4343   1.7143
     1.7991   1.8499   2.1993   2.3523   2.6584   2.7128   2.8505   3.2102
     3.3847   3.4971   3.6022   3.6309

[...]

          k =-0.5000 0.0000 0.0000 ( 85168 PWs)   bands (ev):

[...]

     the Fermi energy is     0.1645 ev

!    total energy              =   -9109.65346415 Ry
     total all-electron energy =     -9109.653464 Ry
     estimated scf accuracy    <          2.9E-09 Ry
     smearing contrib. (-TS)   =      -0.00005039 Ry
     internal energy E=F+TS    =   -9109.65341376 Ry

     The total energy is F=E-TS. E is the sum of the following terms:
     one-electron contribution =  -16609.59569407 Ry
     hartree contribution      =    8163.40876231 Ry
     xc contribution           =    -365.60347471 Ry
     ewald contribution        =    5969.87629661 Ry
     one-center paw contrib.   =   -6267.73930390 Ry

     convergence has been achieved in  29 iterations

[...]

     Forces acting on atoms (cartesian axes, Ry/au):

     atom    1 type  1   force =     0.04151759    0.03905586   -0.00714557
     atom    2 type  1   force =     0.00877762   -0.04563887    0.01879823
     atom    3 type  1   force =    -0.03870750    0.04798211   -0.01946369
     atom    4 type  1   force =    -0.02353086   -0.04640134    0.02284995
     atom    5 type  2   force =    -0.00246928    0.05310251   -0.01030962
     atom    6 type  2   force =    -0.01132923   -0.05217219    0.01150669
     atom    7 type  2   force =     0.01507607    0.05117762   -0.01384367
     atom    8 type  2   force =     0.02919708   -0.04954479    0.01060821
     atom    9 type  2   force =     0.00306636    0.02604281   -0.02037128
     atom   10 type  2   force =    -0.00811579   -0.02260443    0.00172126
     atom   11 type  3   force =     0.02853319   -0.03428083   -0.04538024
     atom   12 type  3   force =     0.00957787    0.03452047    0.04152130
     atom   13 type  3   force =    -0.00430141    0.02117269   -0.03462618
     atom   14 type  3   force =    -0.01667704   -0.02044107    0.04051481
     atom   15 type  3   force =    -0.00762634   -0.03617225   -0.04096645
     atom   16 type  3   force =    -0.01283100    0.03470758    0.04105605
     atom   17 type  3   force =     0.00267710    0.02134356   -0.03488047
     atom   18 type  3   force =     0.02602929   -0.02068089    0.00635736
     atom   19 type  3   force =    -0.04135917    0.02095998   -0.00004896
     atom   20 type  3   force =     0.00249544   -0.02212854    0.03210226

     Total force =     0.225693     Total SCF correction =     0.000188

     Computing stress (Cartesian axis) and pressure

     negative rho (up, down):  6.622E-02 0.000E+00
          total   stress  (Ry/bohr**3)                   (kbar)     P=       14.08
   0.00002852  -0.00000081   0.00000846            4.20       -0.12        1.24
  -0.00000081   0.00018203  -0.00002414           -0.12       26.78       -3.55
   0.00000846  -0.00002414   0.00007665            1.24       -3.55       11.28

     BFGS Geometry Optimization
     Energy error            =      0.0E+00 Ry
     Gradient error          =      5.3E-02 Ry/Bohr

     number of scf cycles    =   1
     number of bfgs steps    =   0

     energy             new  =   -9109.6534641525 Ry

     new trust radius        =       0.0646481902 bohr
     new conv_thr            =       0.0000000100 Ry

ATOMIC_POSITIONS (angstrom)
Ta           15.4138109898        0.9355910378       12.4400589624
Ta            6.5761954300        2.7206186336       12.6019439315
Ta            2.2446724889        0.9403146043       12.4333662201
Ta           11.0730013523        2.7202151517       12.6042481579
Ni           12.8631014736        0.9430242037       11.7562339812
Ni            4.0381049540        2.7171613449       13.2802330321
Ni            4.8004446352        0.9420055963       11.7540972017
Ni           13.6282110454        2.7185517078       13.2800146297
Ni            8.8299693117        0.9287048263       12.3574255821
Ni            0.0037822115        2.7328079317       12.6685206658
Te           14.2281414901        2.7266290453       10.5112425614
Te            5.3977902441        0.9331910121       14.5225442303
Te           10.5931569112        0.9261276711       10.5010104925
Te            1.7663249743        2.7339527331       14.5379344682
Te            3.4396530050        2.7256281485       10.5133550314
Te           12.2571996659        0.9332900248       14.5225184732
Te            7.0630350845        0.9262180881       10.5007133203
Te           15.8956760115        2.7338258233       14.5200312977
Te           -0.0135874050        0.9260151094       10.8375931547
Te            8.8298784892        2.7330597601       14.2151656056

     Writing config-only to output data dir /ddn/data/physics/eamoujaes/2D-Ta2Ni3Te5/ELASTIC/C12/OUT/ta2ni3te5.save/
     NEW-OLD atomic charge density approx. for the potential

[...]

     Energy error            =      4.1E-02 Ry
     Gradient error          =      4.2E-02 Ry/Bohr

[...]

     energy             old  =   -9109.6534641525 Ry
     energy             new  =   -9109.6943828691 Ry

     CASE: energy            _new < energy            _old

[...]

     iteration #  1     ecut=    60.00 Ry     beta= 0.20
     Davidson diagonalization with overlap
     c_bands:  1 eigenvalues not converged
     ethr =  1.00E-06,  avg # of iterations = 15.2

[...]

     Threshold (ethr) on eigenvalues was too large:
     Diagonalizing with lowered threshold

     Davidson diagonalization with overlap
     ethr =  3.75E-08,  avg # of iterations =  4.0

[...]

     number of scf cycles    =  28
     number of bfgs steps    =  27

     energy             old  =   -9109.8205835082 Ry
     energy             new  =   -9109.8206084817 Ry

     CASE: energy            _new < energy            _old

     new trust radius        =       0.0038967320 bohr
     new conv_thr            =            1.0E-10 Ry

ATOMIC_POSITIONS (angstrom)
Ta           15.8336649413        0.9685918011       12.3336560353
Ta            6.4688720977        2.6911132856       12.6977856264
Ta            1.9331020047        0.9683041538       12.3539129215
Ta           11.2937264883        2.6915236525       12.6880646257
Ni           13.1364542449        0.9687254201       11.7290561049
Ni            3.7724786699        2.6912480409       13.3016636200
Ni            4.6242279228        0.9681012877       11.7527378161
Ni           13.9866304462        2.6917394429       13.2761946890
Ni            8.8801165293        0.9664454231       12.3052068331
Ni           -0.4730513806        2.6926327511       12.7372616121
Te           14.5849715835        2.6915042691       10.4315635093
Te            5.2178477518        0.9679253951       14.5985447771
Te           10.7862646726        0.9689564675       10.5513007292
Te            1.4292908145        2.6910771846       14.4931776800
Te            3.1843948262        2.6910115686       10.4517851407
Te           12.5531950941        0.9686324309       14.5838664343
Te            6.9703090736        0.9685974613       10.5590104347
Te           16.3314059789        2.6916509133       14.4725242431
Te           -0.4697545820        0.9691637688       10.8493763209
Te            8.8844151855        2.6899877358       14.1915618462

     Writing config-only to output data dir /ddn/data/physics/eamoujaes/2D-Ta2Ni3Te5/ELASTIC/C12/OUT/ta2ni3te5.save/
     NEW-OLD atomic charge density approx. for the potential

[...]

     Self-consistent Calculation

[...]

     Threshold (ethr) on eigenvalues was too large:
     Diagonalizing with lowered threshold

     Davidson diagonalization with overlap
     ethr =  4.11E-09,  avg # of iterations =  5.0

[...]

     total energy              =   -9109.82062388 Ry
     estimated scf accuracy    <          1.7E-10 Ry

     iteration # 19     ecut=    60.00 Ry     beta= 0.20
     Davidson diagonalization with overlap
     ethr =  1.00E-13,  avg # of iterations =  1.0

[...]

     End of self-consistent calculation

[...]

          k = 0.0000-2.7180 0.0000 ( 85712 PWs)   bands (ev):

[...]

          k =-0.5000-2.7180 0.0000 ( 85712 PWs)   bands (ev):

  -103.2259-103.2234-103.2209-103.2112-102.9455-102.9451 -68.5835 -68.5825
   -68.5818 -68.5783 -63.7855 -63.7830 -63.7805 -63.7713 -63.6191 -63.6178
   -63.6165 -63.6084 -63.5123 -63.5116 -63.5093 -63.5007 -63.4673 -63.4664
   -63.4453 -63.4441 -63.1800 -63.1783 -35.0894 -35.0891 -35.0875 -35.0847
   -35.0728 -35.0720 -35.0702 -35.0678 -35.0393 -35.0383 -35.0380 -35.0354
   -11.2299 -11.2298 -11.1528 -11.1505 -11.0932 -11.0905 -11.0900 -11.0889
   -10.8885 -10.8869  -6.3171  -6.3149  -6.1730  -6.1694  -5.6473  -5.6445
    -5.0945  -5.0935  -4.9444  -4.9416  -4.0298  -4.0282  -3.9636  -3.9629
    -3.7974  -3.7959  -3.5655  -3.5617  -3.5529  -3.5526  -3.4415  -3.4398
    -3.3876  -3.3874  -3.0475  -3.0465  -2.9539  -2.9527  -2.9359  -2.9326
    -2.5001  -2.4971  -2.4541  -2.4536  -2.1948  -2.1904  -2.0924  -2.0904
    -2.0771  -2.0756  -2.0664  -2.0607  -1.7092  -1.7087  -1.5555  -1.5507
    -1.3727  -1.3711  -1.3441  -1.3387  -1.1854  -1.1847  -1.1710  -1.1696
    -0.9707  -0.9701  -0.8697  -0.8677  -0.6861  -0.6850   0.5252   0.5272
     0.9523   0.9528   1.1041   1.1056   1.1370   1.1389   1.8533   1.8570
     1.9077   1.9107   2.2756   2.2763   2.4977   2.5009   3.2761   3.2764
     3.2924   3.2937   3.5128   3.5155

     the Fermi energy is     0.1181 ev

!    total energy              =   -9109.82062388 Ry
     total all-electron energy =     -9109.820624 Ry
     estimated scf accuracy    <          8.9E-11 Ry
     smearing contrib. (-TS)   =      -0.00014898 Ry
     internal energy E=F+TS    =   -9109.82047490 Ry

     The total energy is F=E-TS. E is the sum of the following terms:
     one-electron contribution =  -16351.92649841 Ry
     hartree contribution      =    8035.09078246 Ry
     xc contribution           =    -364.87958879 Ry
     ewald contribution        =    5839.56393519 Ry
     one-center paw contrib.   =   -6267.66910536 Ry

     convergence has been achieved in  19 iterations

     negative rho (up, down):  6.506E-02 0.000E+00

     Forces acting on atoms (cartesian axes, Ry/au):

     atom    1 type  1   force =    -0.00039282    0.00032631   -0.00018395
     atom    2 type  1   force =     0.00025577   -0.00027311    0.00038533
     atom    3 type  1   force =     0.00020228    0.00026784   -0.00022994
     atom    4 type  1   force =     0.00005796   -0.00025682   -0.00002776
     atom    5 type  2   force =     0.00001738    0.00026002    0.00058498
     atom    6 type  2   force =     0.00060212   -0.00035434   -0.00025975
     atom    7 type  2   force =     0.00061869    0.00031351    0.00009525
     atom    8 type  2   force =     0.00089702   -0.00033539    0.00035981
     atom    9 type  2   force =     0.00020279    0.00032604    0.00033490
     atom   10 type  2   force =    -0.00011813   -0.00028849   -0.00091062
     atom   11 type  3   force =    -0.00070258   -0.00017382   -0.00021684
     atom   12 type  3   force =    -0.00017145    0.00028352    0.00053668
     atom   13 type  3   force =    -0.00014528    0.00005806    0.00001447
     atom   14 type  3   force =    -0.00028682   -0.00009919   -0.00052076
     atom   15 type  3   force =     0.00027937   -0.00017425   -0.00022319
     atom   16 type  3   force =    -0.00006329    0.00021672    0.00020483
     atom   17 type  3   force =    -0.00028021    0.00004297    0.00033932
     atom   18 type  3   force =    -0.00029360   -0.00013773    0.00028541
     atom   19 type  3   force =    -0.00068677    0.00020340   -0.00016565
     atom   20 type  3   force =     0.00000758   -0.00020524   -0.00040250

     Total force =     0.002691     Total SCF correction =     0.000048

     Computing stress (Cartesian axis) and pressure

     negative rho (up, down):  6.506E-02 0.000E+00
          total   stress  (Ry/bohr**3)                   (kbar)     P=       -4.33
  -0.00012159   0.00000000   0.00000034          -17.89        0.00        0.05
   0.00000000   0.00007205  -0.00000015            0.00       10.60       -0.02
   0.00000034  -0.00000015  -0.00003886            0.05       -0.02       -5.72

     Energy error            =      1.5E-05 Ry
     Gradient error          =      9.1E-04 Ry/Bohr

     bfgs converged in  29 scf cycles and  28 bfgs steps
     (criteria: energy <  1.0E-04 Ry, force <  1.0E-03 Ry/Bohr)

     End of BFGS Geometry Optimization

     Final energy             =   -9109.8206238800 Ry

     File /ddn/data/physics/eamoujaes/2D-Ta2Ni3Te5/ELASTIC/C12/OUT/ta2ni3te5.bfgs deleted, as requested
Begin final coordinates

ATOMIC_POSITIONS (angstrom)
Ta           15.8336649413        0.9685918011       12.3336560353
Ta            6.4688720977        2.6911132856       12.6977856264
Ta            1.9331020047        0.9683041538       12.3539129215
Ta           11.2937264883        2.6915236525       12.6880646257
Ni           13.1364542449        0.9687254201       11.7290561049
Ni            3.7724786699        2.6912480409       13.3016636200
Ni            4.6242279228        0.9681012877       11.7527378161
Ni           13.9866304462        2.6917394429       13.2761946890
Ni            8.8801165293        0.9664454231       12.3052068331
Ni           -0.4730513806        2.6926327511       12.7372616121
Te           14.5849715835        2.6915042691       10.4315635093
Te            5.2178477518        0.9679253951       14.5985447771
Te           10.7862646726        0.9689564675       10.5513007292
Te            1.4292908145        2.6910771846       14.4931776800
Te            3.1843948262        2.6910115686       10.4517851407
Te           12.5531950941        0.9686324309       14.5838664343
Te            6.9703090736        0.9685974613       10.5590104347
Te           16.3314059789        2.6916509133       14.4725242431
Te           -0.4697545820        0.9691637688       10.8493763209
Te            8.8844151855        2.6899877358       14.1915618462
End final coordinates

     Writing all to output data dir /ddn/data/physics/eamoujaes/2D-Ta2Ni3Te5/ELASTIC/C12/OUT/ta2ni3te5.save/

     General routines

     Parallel routines

   This run was terminated on:   3: 1:54   1Aug2024

   JOB DONE.