     Program PWSCF v.7.1 starts on  1Aug2024 at  3: 1:57

     Waiting for input...
     Reading input from standard input
Warning: card &CELL ignored
Warning: card CELL_DYNAMICS='BFGS' ignored
Warning: card PRESS=0.0 ignored
Warning: card CELL_DOFREE='2DXY' ignored
Warning: card / ignored

     Current dimensions of program PWSCF are:
     Max number of different atomic species (ntypx) = 10
     Max number of k-points (npk) =  40000
     Max angular momentum in pseudopotentials (lmaxx) =  4
     Message from routine read_pp_mesh:
     mismatch in mesh size, discarding the one in header
     Message from routine read_pp_mesh:
     mismatch in mesh size, discarding the one in header
     Message from routine read_pp_mesh:
     mismatch in mesh size, discarding the one in header

     K-points division:     npool     =       8
     R & G space division:  proc/nbgrp/npool/nimage =       3
     Subspace diagonalization in iterative solution of the eigenvalue problem:
     a serial algorithm will be used

     Using Slab Decomposition

     bravais-lattice index     =            0
     lattice parameter (alat)  =      36.0805  a.u.
     unit-cell volume          =   10883.6322 (a.u.)^3
     number of atoms/cell      =           20
     number of atomic types    =            3
     number of electrons       =       220.00
     number of Kohn-Sham states=          132
     kinetic-energy cutoff     =      60.0000  Ry
     charge density cutoff     =     480.0000  Ry
     scf convergence threshold =      1.0E-08
     mixing beta               =       0.2000
     number of iterations used =            8  plain     mixing
     energy convergence thresh.=      1.0E-04
     force convergence thresh. =      1.0E-03
     Exchange-correlation= SLA PW PBX PBC
                           (   1   4   3   4   0   0   0)
     nstep                     =         2000

     celldm(1)=  36.080541  celldm(2)=   0.000000  celldm(3)=   0.000000
     celldm(4)=   0.000000  celldm(5)=   0.000000  celldm(6)=   0.000000

     crystal axes: (cart. coord. in units of alat)
               a(1) = (   1.000000   0.000000   0.000000 )
               a(2) = (   0.000000   0.176714   0.000000 )
               a(3) = (   0.000000   0.000000   1.311245 )

     reciprocal axes: (cart. coord. in units 2 pi/alat)
               b(1) = (  1.000000  0.000000  0.000000 )
               b(2) = (  0.000000  5.658862  0.000000 )
               b(3) = (  0.000000  0.000000  0.762634 )

     PseudoPot. # 1 for Ta read from file:
     /ddn/data/physics/eamoujaes/PSEUDO-CREATED/Ta.upf
     MD5 check sum: d865b2c2c09566b116f2b8decb2c153d
     Pseudo is Projector augmented-wave + core cor, Zval = 13.0
     Generated using ATOMPAW code
     Shape of augmentation charge: SINC**2
     Using radial grid of 2342 points,  6 beta functions with:
                l(1) =   0
                l(2) =   0
                l(3) =   1
                l(4) =   1
                l(5) =   2
                l(6) =   2
     Q(r) pseudized with 0 coefficients

     PseudoPot. # 2 for Ni read from file:
     /ddn/data/physics/eamoujaes/PSEUDO-CREATED/Ni.upf
     MD5 check sum: 85a2a5d9d38f4289a1cc30d5adb66a03
     Pseudo is Projector augmented-wave + core cor, Zval = 18.0
     Generated using ATOMPAW code
     Shape of augmentation charge: SINC**2
     Using radial grid of 2342 points,  6 beta functions with:
                l(1) =   0
                l(2) =   0
                l(3) =   1
                l(4) =   1
                l(5) =   2
                l(6) =   2
     Q(r) pseudized with 0 coefficients

     PseudoPot. # 3 for Te read from file:
     /ddn/data/physics/eamoujaes/PSEUDO-CREATED/Te.upf
     MD5 check sum: 8d958f193a7511a138982c2e72838810
     Pseudo is Projector augmented-wave + core cor, Zval =  6.0
     Generated using ATOMPAW code
     Shape of augmentation charge: SINC**2
     Using radial grid of 2342 points,  4 beta functions with:
                l(1) =   0
                l(2) =   0
                l(3) =   1
                l(4) =   1
     Q(r) pseudized with 0 coefficients

     atomic species   valence    mass     pseudopotential
        Ta            13.00   180.94790     Ta( 1.00)
        Ni            18.00    58.69340     Ni( 1.00)
        Te             6.00   127.60000     Te( 1.00)

     No symmetry found

   Cartesian axes

     site n.     atom                  positions (alat units)
         1           Ta  tau(   1) = (   0.8061510   0.0479193   0.6517488  )
         2           Ta  tau(   2) = (   0.3441864   0.1437579   0.6595085  )
         3           Ta  tau(   3) = (   0.1186380   0.0479193   0.6517397  )
         4           Ta  tau(   4) = (   0.5806030   0.1437579   0.6595169  )
         5           Ni  tau(   5) = (   0.6737762   0.0479193   0.6160210  )
         6           Ni  tau(   6) = (   0.2118106   0.1437579   0.6952362  )
         7           Ni  tau(   7) = (   0.2510065   0.0479193   0.6160071  )
         8           Ni  tau(   8) = (   0.7129713   0.1437579   0.6952496  )
         9           Ni  tau(   9) = (   0.4623866   0.0479193   0.6477874  )
        10           Ni  tau(  10) = (   0.0004230   0.1437579   0.6634688  )
        11           Te  tau(  11) = (   0.7444112   0.1437579   0.5517863  )
        12           Te  tau(  12) = (   0.2824450   0.0479193   0.7594706  )
        13           Te  tau(  13) = (   0.5549381   0.0479193   0.5509524  )
        14           Te  tau(  14) = (   0.0929739   0.1437579   0.7603046  )
        15           Te  tau(  15) = (   0.1803639   0.1437579   0.5517747  )
        16           Te  tau(  16) = (   0.6423291   0.0479193   0.7594821  )
        17           Te  tau(  17) = (   0.3698538   0.0479193   0.5509439  )
        18           Te  tau(  18) = (   0.8318180   0.1437579   0.7603136  )
        19           Te  tau(  19) = (   0.0004347   0.0479193   0.5676226  )
        20           Te  tau(  20) = (   0.4623976   0.1437579   0.7436326  )

     number of k points=    12  Gaussian smearing, width (Ry)=  0.0020
                       cart. coord. in units 2pi/alat
        k(    1) = (   0.0000000   0.0000000   0.0000000), wk =   0.1000000
        k(    2) = (   0.0000000   0.5658862   0.0000000), wk =   0.2000000
        k(    3) = (   0.0000000   1.1317724   0.0000000), wk =   0.2000000
        k(    4) = (   0.0000000   1.6976586   0.0000000), wk =   0.2000000
        k(    5) = (   0.0000000   2.2635448   0.0000000), wk =   0.2000000
        k(    6) = (   0.0000000  -2.8294309   0.0000000), wk =   0.1000000
        k(    7) = (  -0.5000000   0.0000000   0.0000000), wk =   0.1000000
        k(    8) = (  -0.5000000   0.5658862   0.0000000), wk =   0.2000000
        k(    9) = (  -0.5000000   1.1317724   0.0000000), wk =   0.2000000
        k(   10) = (  -0.5000000   1.6976586   0.0000000), wk =   0.2000000
        k(   11) = (  -0.5000000   2.2635448   0.0000000), wk =   0.2000000
        k(   12) = (  -0.5000000  -2.8294309   0.0000000), wk =   0.1000000

     Initial potential from superposition of free atoms

     starting charge     219.9927, renormalised to     220.0000

     negative rho (up, down):  4.956E-02 0.000E+00
     Starting wfcs are  260 randomized atomic wfcs
     Checking if some PAW data can be deallocated...

     Self-consistent Calculation

     iteration #  1     ecut=    60.00 Ry     beta= 0.20
     Davidson diagonalization with overlap
     ethr =  1.00E-02,  avg # of iterations =  2.9

     negative rho (up, down):  5.021E-02 0.000E+00

     total energy              =   -9107.51250941 Ry
     estimated scf accuracy    <       8.31967887 Ry

[...]

     iteration #  8     ecut=    60.00 Ry     beta= 0.20
     Davidson diagonalization with overlap
     c_bands:  2 eigenvalues not converged
     ethr =  8.72E-05,  avg # of iterations =  8.6

[...]

     End of self-consistent calculation

          k = 0.0000 0.0000 0.0000 ( 85375 PWs)   bands (ev):

  -103.8021-103.7181-103.4270-103.3760-103.1947-102.5517 -68.7418 -68.3400
   -68.2107 -68.1041 -64.3565 -64.2804 -64.2296 -64.1259 -64.0941 -63.9960
   -63.9916 -63.9468 -63.8456 -63.7644 -63.7334 -63.7054 -63.6755 -63.6629
   -63.4658 -63.0904 -62.9786 -62.8778 -35.3570 -35.2068 -35.1014 -34.9321
   -34.9065 -34.7938 -34.7760 -34.7621 -34.6828 -34.6529 -34.6389 -34.5401
   -13.5086 -13.2545 -12.9157 -12.6943 -12.5056 -12.2931 -12.2356 -12.0345
   -11.8874 -11.8027  -6.6234  -6.3634  -6.1605  -6.0195  -5.8983  -5.7045
    -5.4938  -5.1484  -4.9362  -4.6233  -4.4650  -4.3207  -4.2113  -4.1393
    -4.0480  -3.8686  -3.6711  -3.5802  -3.5265  -3.4939  -3.2912  -3.1772
    -3.0968  -2.9071  -2.8621  -2.7495  -2.7143  -2.6292  -2.5535  -2.4874
    -2.2957  -2.2931  -2.1899  -2.1043  -2.0796  -2.0183  -1.9866  -1.9249
    -1.8160  -1.7164  -1.6566  -1.5094  -1.4578  -1.4219  -1.3545  -1.3426
    -1.2145  -1.1105  -1.0279  -0.8959  -0.8195  -0.7634  -0.6630  -0.5774
    -0.4217  -0.2781  -0.2628  -0.1753   0.0149   0.1138   0.2935   0.5552
     1.0071   1.0906   1.2807   1.3648   1.3749   1.4323   1.5597   1.7831
     1.9223   1.9872   2.2810   2.3382   2.5534   2.9183   2.9603   3.0816
     3.3236   3.4932   3.5785   3.6577

[...]

          k =-0.5000 0.0000 0.0000 ( 85284 PWs)   bands (ev):

[...]

     the Fermi energy is     0.1814 ev

!    total energy              =   -9109.53308662 Ry
     total all-electron energy =     -9109.533087 Ry
     estimated scf accuracy    <          9.3E-09 Ry
     smearing contrib. (-TS)   =      -0.00007864 Ry
     internal energy E=F+TS    =   -9109.53300797 Ry

     The total energy is F=E-TS. E is the sum of the following terms:
     one-electron contribution =  -16738.60316799 Ry
     hartree contribution      =    8227.97010444 Ry
     xc contribution           =    -365.95489537 Ry
     ewald contribution        =    6034.81432270 Ry
     one-center paw contrib.   =   -6267.75937176 Ry

     convergence has been achieved in  28 iterations

[...]

     Forces acting on atoms (cartesian axes, Ry/au):

     atom    1 type  1   force =     0.03502071    0.05512968   -0.00842405
     atom    2 type  1   force =     0.01202197   -0.06670678    0.02821954
     atom    3 type  1   force =    -0.05001754    0.06991228   -0.03259656
     atom    4 type  1   force =    -0.02958337   -0.06847758    0.03423580
     atom    5 type  2   force =    -0.00944720    0.07654154   -0.01656591
     atom    6 type  2   force =    -0.01720720   -0.07441879    0.01743971
     atom    7 type  2   force =     0.02420998    0.07296531   -0.02005227
     atom    8 type  2   force =     0.03802878   -0.06902261    0.01735399
     atom    9 type  2   force =     0.00423338    0.03882513   -0.03395360
     atom   10 type  2   force =     0.00209187   -0.03355752    0.00646703
     atom   11 type  3   force =     0.03754111   -0.04979038   -0.06570077
     atom   12 type  3   force =     0.01614564    0.04985418    0.06111510
     atom   13 type  3   force =    -0.00722993    0.03033690   -0.04946636
     atom   14 type  3   force =    -0.02064746   -0.02928914    0.05704951
     atom   15 type  3   force =    -0.01393134   -0.05258238   -0.05930048
     atom   16 type  3   force =    -0.02106068    0.05045827    0.06036433
     atom   17 type  3   force =     0.00527245    0.03045869   -0.04953152
     atom   18 type  3   force =     0.02526474   -0.02950655    0.01859186
     atom   19 type  3   force =    -0.03362352    0.03021815   -0.01283358
     atom   20 type  3   force =     0.00291762   -0.03134839    0.04758826

     Total force =     0.316910     Total SCF correction =     0.000556

     Computing stress (Cartesian axis) and pressure

     negative rho (up, down):  6.650E-02 0.000E+00
          total   stress  (Ry/bohr**3)                   (kbar)     P=       22.97
   0.00007103  -0.00000172   0.00000384           10.45       -0.25        0.56
  -0.00000172   0.00026141  -0.00003339           -0.25       38.46       -4.91
   0.00000384  -0.00003339   0.00013591            0.56       -4.91       19.99

     BFGS Geometry Optimization
     Energy error            =      0.0E+00 Ry
     Gradient error          =      7.7E-02 Ry/Bohr

     number of scf cycles    =   1
     number of bfgs steps    =   0

     energy             new  =   -9109.5330866151 Ry

     new trust radius        =       0.0919348505 bohr
     new conv_thr            =       0.0000000100 Ry

ATOMIC_POSITIONS (angstrom)
Ta           15.4103729878        0.9440969341       12.4393824170
Ta            6.5779122650        2.7094699741       12.6069294723
Ta            2.2386874722        0.9519195496       12.4264166046
Ta           11.0697985031        2.7085329083       12.6102732902
Ni           12.8594089165        0.9554276003       11.7529232907
Ni            4.0349944661        2.7053889524       13.2833726466
Ni            4.8052780910        0.9535351456       11.7508117545
Ni           13.6328845776        2.7082444883       13.2835843471
Ni            8.8305868744        0.9354689372       12.3502381256
Ni            0.0091838696        2.7270118044       12.6710320163
Te           14.2329082758        2.7184217461       10.5004894004
Te            5.4012657590        0.9413052592       14.5329128221
Te           10.5916072036        0.9309771610       10.4931574049
Te            1.7642239167        2.7292705349       14.5466842552
Te            3.4363165465        2.7169442851       10.5036530777
Te           12.2528447073        0.9416249307       14.5327359736
Te            7.0644084803        0.9310416065       10.4929603202
Te           15.8952714292        2.7291554880       14.5265055149
Te           -0.0094938776        0.9309143182       10.8308278269
Te            8.8301018992        2.7281808299       14.2233604391

     Writing config-only to output data dir /ddn/data/physics/eamoujaes/2D-Ta2Ni3Te5/ELASTIC/C12/OUT/ta2ni3te5.save/
     NEW-OLD atomic charge density approx. for the potential

[...]

     Energy error            =      7.7E-02 Ry
     Gradient error          =      4.0E-02 Ry/Bohr

[...]

     energy             old  =   -9109.5330866151 Ry
     energy             new  =   -9109.6100024513 Ry

     CASE: energy            _new < energy            _old

[...]

     WARNING: bfgs curvature condition failed, Theta= 0.999
     new trust radius        =       0.0334098742 bohr
     new conv_thr            =       0.0000000013 Ry

[...]

     iteration #  1     ecut=    60.00 Ry     beta= 0.20
     Davidson diagonalization with overlap
     c_bands:  1 eigenvalues not converged
     ethr =  1.00E-06,  avg # of iterations = 18.8

[...]

     Threshold (ethr) on eigenvalues was too large:
     Diagonalizing with lowered threshold

     Davidson diagonalization with overlap
     ethr =  7.37E-08,  avg # of iterations =  3.2

[...]

     number of scf cycles    =  37
     number of bfgs steps    =  36

     energy             old  =   -9109.7714989806 Ry
     energy             new  =   -9109.7715219887 Ry

     CASE: energy            _new < energy            _old

     new trust radius        =       0.0038105312 bohr
     new conv_thr            =            1.0E-10 Ry

ATOMIC_POSITIONS (angstrom)
Ta           15.9831053086        0.9870187189       12.2945471195
Ta            6.4307448683        2.6728886296       12.7391548662
Ta            1.8228630824        0.9859879142       12.3149754656
Ta           11.3688661411        2.6737788466       12.7230323099
Ni           13.2237547365        0.9866045224       11.7209893864
Ni            3.6789684154        2.6731313617       13.3151671604
Ni            4.5693417682        0.9868245035       11.7497575519
Ni           14.1238658662        2.6730750187       13.2842891860
Ni            8.8923134662        0.9881425789       12.2887211801
Ni           -0.6353327726        2.6721204228       12.7473024276
Te           14.7119520744        2.6728530610       10.3944150653
Te            5.1633113580        0.9871202326       14.6436122759
Te           10.8402254578        0.9866574379       10.5679835574
Te            1.3068045740        2.6728747706       14.4742830320
Te            3.0963147320        2.6728374916       10.4147906991
Te           12.6509340302        0.9869697917       14.6194484559
Te            6.9368003693        0.9861038283       10.5776423556
Te           16.4975337180        2.6727866370       14.4536836274
Te           -0.6391472936        0.9855192251       10.8420087767
Te            8.9053424629        2.6736374610       14.1924465010

     Writing config-only to output data dir /ddn/data/physics/eamoujaes/2D-Ta2Ni3Te5/ELASTIC/C12/OUT/ta2ni3te5.save/
     NEW-OLD atomic charge density approx. for the potential

[...]

     Self-consistent Calculation

[...]

     Threshold (ethr) on eigenvalues was too large:
     Diagonalizing with lowered threshold

     Davidson diagonalization with overlap
     ethr =  4.06E-09,  avg # of iterations =  5.0

[...]

     total energy              =   -9109.77153475 Ry
     estimated scf accuracy    <          1.3E-10 Ry

     iteration # 18     ecut=    60.00 Ry     beta= 0.20
     Davidson diagonalization with overlap
     ethr =  1.00E-13,  avg # of iterations =  2.8

[...]

     End of self-consistent calculation

[...]

          k = 0.0000-2.8294 0.0000 ( 85560 PWs)   bands (ev):

[...]

          k =-0.5000-2.8294 0.0000 ( 85544 PWs)   bands (ev):

  -103.1658-103.1637-103.1563-103.1503-102.9233-102.9232 -68.5386 -68.5382
   -68.5350 -68.5315 -63.7212 -63.7188 -63.7119 -63.7061 -63.5572 -63.5558
   -63.5511 -63.5472 -63.4631 -63.4626 -63.4597 -63.4566 -63.4520 -63.4452
   -63.4192 -63.4182 -63.1468 -63.1466 -35.0477 -35.0474 -35.0441 -35.0412
   -35.0412 -35.0409 -35.0368 -35.0334 -34.9996 -34.9995 -34.9968 -34.9937
   -11.1435 -11.1422 -11.0641 -11.0637 -11.0299 -11.0290 -10.9813 -10.9804
   -10.8173 -10.8163  -6.3240  -6.3235  -6.2050  -6.2047  -5.7245  -5.7234
    -5.1510  -5.1501  -5.0062  -5.0056  -3.9945  -3.9943  -3.9440  -3.9438
    -3.7712  -3.7696  -3.5552  -3.5547  -3.5052  -3.5048  -3.4298  -3.4295
    -3.3207  -3.3192  -3.0151  -3.0150  -2.9154  -2.9150  -2.8837  -2.8823
    -2.4349  -2.4339  -2.4335  -2.4328  -2.1382  -2.1360  -2.1153  -2.1149
    -2.0711  -2.0702  -1.9904  -1.9899  -1.5886  -1.5871  -1.4620  -1.4613
    -1.3239  -1.3237  -1.2829  -1.2807  -1.1758  -1.1751  -1.0971  -1.0964
    -0.9014  -0.9011  -0.8311  -0.8303  -0.6485  -0.6481   0.5880   0.5897
     0.8754   0.8764   1.0495   1.0498   1.1363   1.1381   1.8301   1.8309
     1.8569   1.8590   2.1958   2.1981   2.4326   2.4347   3.3710   3.3747
     3.5328   3.5330   3.6766   3.6771

     the Fermi energy is     0.1768 ev

!    total energy              =   -9109.77153475 Ry
     total all-electron energy =     -9109.771535 Ry
     estimated scf accuracy    <          5.2E-11 Ry
     smearing contrib. (-TS)   =      -0.00021375 Ry
     internal energy E=F+TS    =   -9109.77132100 Ry

     The total energy is F=E-TS. E is the sum of the following terms:
     one-electron contribution =  -16332.18526126 Ry
     hartree contribution      =    8025.46835524 Ry
     xc contribution           =    -364.86408063 Ry
     ewald contribution        =    5829.45832315 Ry
     one-center paw contrib.   =   -6267.64865750 Ry

     convergence has been achieved in  18 iterations

     negative rho (up, down):  6.466E-02 0.000E+00

     Forces acting on atoms (cartesian axes, Ry/au):

     atom    1 type  1   force =     0.00017695   -0.00034184   -0.00020131
     atom    2 type  1   force =     0.00044666    0.00021890    0.00058863
     atom    3 type  1   force =    -0.00038137   -0.00000818   -0.00032132
     atom    4 type  1   force =    -0.00005165   -0.00001298    0.00051795
     atom    5 type  2   force =     0.00040946   -0.00000426    0.00032555
     atom    6 type  2   force =     0.00067384    0.00005963   -0.00013173
     atom    7 type  2   force =     0.00033456   -0.00013325   -0.00032856
     atom    8 type  2   force =     0.00001790    0.00010464    0.00018399
     atom    9 type  2   force =     0.00030266   -0.00018990    0.00043910
     atom   10 type  2   force =    -0.00040570    0.00001990   -0.00050967
     atom   11 type  3   force =    -0.00073249    0.00018264   -0.00032693
     atom   12 type  3   force =    -0.00032042   -0.00024621    0.00002400
     atom   13 type  3   force =     0.00060813    0.00002706   -0.00036733
     atom   14 type  3   force =    -0.00050496    0.00000682    0.00020693
     atom   15 type  3   force =    -0.00003840    0.00012677   -0.00035401
     atom   16 type  3   force =    -0.00046123   -0.00012929    0.00007943
     atom   17 type  3   force =     0.00039273    0.00000547   -0.00017353
     atom   18 type  3   force =    -0.00031316    0.00014627    0.00025658
     atom   19 type  3   force =     0.00002479   -0.00004322    0.00010578
     atom   20 type  3   force =    -0.00017831    0.00021106   -0.00001355

     Total force =     0.002358     Total SCF correction =     0.000036

     Computing stress (Cartesian axis) and pressure

     negative rho (up, down):  6.466E-02 0.000E+00
          total   stress  (Ry/bohr**3)                   (kbar)     P=       -4.86
  -0.00015619   0.00000000  -0.00000068          -22.98        0.00       -0.10
   0.00000000   0.00009548  -0.00000001            0.00       14.05       -0.00
  -0.00000068  -0.00000001  -0.00003833           -0.10       -0.00       -5.64

     Energy error            =      1.3E-05 Ry
     Gradient error          =      7.3E-04 Ry/Bohr

     bfgs converged in  38 scf cycles and  37 bfgs steps
     (criteria: energy <  1.0E-04 Ry, force <  1.0E-03 Ry/Bohr)

     End of BFGS Geometry Optimization

     Final energy             =   -9109.7715347487 Ry

     File /ddn/data/physics/eamoujaes/2D-Ta2Ni3Te5/ELASTIC/C12/OUT/ta2ni3te5.bfgs deleted, as requested
Begin final coordinates

ATOMIC_POSITIONS (angstrom)
Ta           15.9831053086        0.9870187189       12.2945471195
Ta            6.4307448683        2.6728886296       12.7391548662
Ta            1.8228630824        0.9859879142       12.3149754656
Ta           11.3688661411        2.6737788466       12.7230323099
Ni           13.2237547365        0.9866045224       11.7209893864
Ni            3.6789684154        2.6731313617       13.3151671604
Ni            4.5693417682        0.9868245035       11.7497575519
Ni           14.1238658662        2.6730750187       13.2842891860
Ni            8.8923134662        0.9881425789       12.2887211801
Ni           -0.6353327726        2.6721204228       12.7473024276
Te           14.7119520744        2.6728530610       10.3944150653
Te            5.1633113580        0.9871202326       14.6436122759
Te           10.8402254578        0.9866574379       10.5679835574
Te            1.3068045740        2.6728747706       14.4742830320
Te            3.0963147320        2.6728374916       10.4147906991
Te           12.6509340302        0.9869697917       14.6194484559
Te            6.9368003693        0.9861038283       10.5776423556
Te           16.4975337180        2.6727866370       14.4536836274
Te           -0.6391472936        0.9855192251       10.8420087767
Te            8.9053424629        2.6736374610       14.1924465010
End final coordinates

     Writing all to output data dir /ddn/data/physics/eamoujaes/2D-Ta2Ni3Te5/ELASTIC/C12/OUT/ta2ni3te5.save/

     General routines

     Parallel routines

   This run was terminated on:   8: 7:16   1Aug2024

   JOB DONE.