     Program PWSCF v.7.3 starts on 27Jul2024 at 21:36:42

     Waiting for input...
     Reading input from standard input
Warning: card &CELL ignored
Warning: card CELL_DYNAMICS='BFGS' ignored
Warning: card PRESS=0.0 ignored
Warning: card CELL_DOFREE='2DXY' ignored
Warning: card / ignored

     Current dimensions of program PWSCF are:
     Max number of different atomic species (ntypx) = 10
     Max number of k-points (npk) =  40000
     Max angular momentum in pseudopotentials (lmaxx) =  4
read_pp_mesh; mismatch in mesh size, discarding the one in header
read_pp_mesh; mismatch in mesh size, discarding the one in header
read_pp_mesh; mismatch in mesh size, discarding the one in header

     Subspace diagonalization in iterative solution of the eigenvalue problem:
     a serial algorithm will be used

     Using Slab Decomposition

     bravais-lattice index     =            0
     lattice parameter (alat)  =      33.3357  a.u.
     unit-cell volume          =   10034.4994 (a.u.)^3
     number of atoms/cell      =           20
     number of atomic types    =            3
     number of electrons       =       220.00
     number of Kohn-Sham states=          132
     kinetic-energy cutoff     =      60.0000  Ry
     charge density cutoff     =     480.0000  Ry
     scf convergence threshold =      1.0E-08
     mixing beta               =       0.2000
     number of iterations used =            8  plain     mixing
     energy convergence thresh.=      1.0E-04
     force convergence thresh. =      1.0E-03
     Exchange-correlation= SLA PW PBX PBC
                           (   1   4   3   4   0   0   0)
     nstep                     =         2000

     celldm(1)=  33.335714  celldm(2)=   0.000000  celldm(3)=   0.000000
     celldm(4)=   0.000000  celldm(5)=   0.000000  celldm(6)=   0.000000

     crystal axes: (cart. coord. in units of alat)
               a(1) = (   1.000000   0.000000   0.000000 )
               a(2) = (   0.000000   0.190862   0.000000 )
               a(3) = (   0.000000   0.000000   1.419211 )

     reciprocal axes: (cart. coord. in units 2 pi/alat)
               b(1) = (  1.000000  0.000000  0.000000 )
               b(2) = (  0.000000  5.239389  0.000000 )
               b(3) = (  0.000000  0.000000  0.704617 )

     PseudoPot. # 1 for Ta read from file:
     /ddn/data/physics/eamoujaes/PSEUDO-CREATED/Ta.upf
     MD5 check sum: d865b2c2c09566b116f2b8decb2c153d
     Pseudo is Projector augmented-wave + core cor, Zval = 13.0
     Generated using ATOMPAW code
     Shape of augmentation charge: SINC**2
     Using radial grid of 2342 points,  6 beta functions with:
                l(1) =   0
                l(2) =   0
                l(3) =   1
                l(4) =   1
                l(5) =   2
                l(6) =   2
     Q(r) pseudized with 0 coefficients

     PseudoPot. # 2 for Ni read from file:
     /ddn/data/physics/eamoujaes/PSEUDO-CREATED/Ni.upf
     MD5 check sum: 85a2a5d9d38f4289a1cc30d5adb66a03
     Pseudo is Projector augmented-wave + core cor, Zval = 18.0
     Generated using ATOMPAW code
     Shape of augmentation charge: SINC**2
     Using radial grid of 2342 points,  6 beta functions with:
                l(1) =   0
                l(2) =   0
                l(3) =   1
                l(4) =   1
                l(5) =   2
                l(6) =   2
     Q(r) pseudized with 0 coefficients

     PseudoPot. # 3 for Te read from file:
     /ddn/data/physics/eamoujaes/PSEUDO-CREATED/Te.upf
     MD5 check sum: 8d958f193a7511a138982c2e72838810
     Pseudo is Projector augmented-wave + core cor, Zval =  6.0
     Generated using ATOMPAW code
     Shape of augmentation charge: SINC**2
     Using radial grid of 2342 points,  4 beta functions with:
                l(1) =   0
                l(2) =   0
                l(3) =   1
                l(4) =   1
     Q(r) pseudized with 0 coefficients

     atomic species   valence    mass     pseudopotential
     Ta               13.00   180.94790     Ta( 1.00)
     Ni               18.00    58.69340     Ni( 1.00)
     Te                6.00   127.60000     Te( 1.00)

     No symmetry found

   Cartesian axes

     site n.     atom                  positions (alat units)
         1        Ta     tau(   1) = (   0.8725286   0.0518649   0.7054131  )
         2        Ta     tau(   2) = (   0.3725263   0.1555948   0.7138118  )
         3        Ta     tau(   3) = (   0.1284065   0.0518649   0.7054032  )
         4        Ta     tau(   4) = (   0.6284092   0.1555948   0.7138208  )
         5        Ni     tau(   5) = (   0.7292542   0.0518649   0.6667436  )
         6        Ni     tau(   6) = (   0.2292509   0.1555948   0.7524812  )
         7        Ni     tau(   7) = (   0.2716741   0.0518649   0.6667284  )
         8        Ni     tau(   8) = (   0.7716766   0.1555948   0.7524957  )
         9        Ni     tau(   9) = (   0.5004590   0.0518649   0.7011256  )
        10        Ni     tau(  10) = (   0.0004579   0.1555948   0.7180981  )
        11        Te     tau(  11) = (   0.8057052   0.1555948   0.5972198  )
        12        Te     tau(  12) = (   0.3057012   0.0518649   0.8220046  )
        13        Te     tau(  13) = (   0.6006311   0.0518649   0.5963172  )
        14        Te     tau(  14) = (   0.1006292   0.1555948   0.8229072  )
        15        Te     tau(  15) = (   0.1952149   0.1555948   0.5972072  )
        16        Te     tau(  16) = (   0.6952178   0.0518649   0.8220171  )
        17        Te     tau(  17) = (   0.4003072   0.0518649   0.5963080  )
        18        Te     tau(  18) = (   0.9003091   0.1555948   0.8229170  )
        19        Te     tau(  19) = (   0.0004704   0.0518649   0.6143601  )
        20        Te     tau(  20) = (   0.5004710   0.1555948   0.8048626  )

     number of k points=    12  Gaussian smearing, width (Ry)=  0.0020
                       cart. coord. in units 2pi/alat
        k(    1) = (   0.0000000   0.0000000   0.0000000), wk =   0.1000000
        k(    2) = (   0.0000000   0.5239389   0.0000000), wk =   0.2000000
        k(    3) = (   0.0000000   1.0478779   0.0000000), wk =   0.2000000
        k(    4) = (   0.0000000   1.5718168   0.0000000), wk =   0.2000000
        k(    5) = (   0.0000000   2.0957557   0.0000000), wk =   0.2000000
        k(    6) = (   0.0000000  -2.6196947   0.0000000), wk =   0.1000000
        k(    7) = (  -0.5000000   0.0000000   0.0000000), wk =   0.1000000
        k(    8) = (  -0.5000000   0.5239389   0.0000000), wk =   0.2000000
        k(    9) = (  -0.5000000   1.0478779   0.0000000), wk =   0.2000000
        k(   10) = (  -0.5000000   1.5718168   0.0000000), wk =   0.2000000
        k(   11) = (  -0.5000000   2.0957557   0.0000000), wk =   0.2000000
        k(   12) = (  -0.5000000  -2.6196947   0.0000000), wk =   0.1000000

     Initial potential from superposition of free atoms

     starting charge     219.9927, renormalised to     220.0000

     negative rho (up, down):  4.855E-02 0.000E+00
     Starting wfcs are  260 randomized atomic wfcs
     Checking if some PAW data can be deallocated...

     Self-consistent Calculation

     iteration #  1     ecut=    60.00 Ry     beta= 0.20
     Davidson diagonalization with overlap
     ethr =  1.00E-02,  avg # of iterations =  2.9

     negative rho (up, down):  4.916E-02 0.000E+00

     total energy              =   -9107.73909219 Ry
     estimated scf accuracy    <       7.88350251 Ry

[...]

     iteration #  9     ecut=    60.00 Ry     beta= 0.20
     Davidson diagonalization with overlap
     c_bands:  3 eigenvalues not converged
     c_bands:  1 eigenvalues not converged
     c_bands:  1 eigenvalues not converged
     ethr =  3.46E-05,  avg # of iterations = 10.3

[...]

     End of self-consistent calculation

          k = 0.0000 0.0000 0.0000 ( 78593 PWs)   bands (ev):

  -103.1374-103.1374-103.1141-103.1141-102.7764-102.7763 -67.8637 -67.8636
   -67.8629 -67.8628 -63.7020 -63.7019 -63.6875 -63.6871 -63.5675 -63.5674
   -63.4751 -63.4749 -63.4719 -63.4718 -63.3860 -63.3860 -63.2892 -63.2891
   -63.2694 -63.2693 -63.0328 -63.0328 -34.4478 -34.4474 -34.4468 -34.4456
   -34.4405 -34.4358 -34.4348 -34.4292 -34.2895 -34.2894 -34.2889 -34.2888
   -13.1532 -12.8760 -12.7200 -12.2626 -12.2003 -11.9756 -11.8908 -11.8626
   -11.8134 -11.5178  -6.2358  -5.9902  -5.8398  -5.7303  -5.5357  -5.5257
    -5.5191  -4.8772  -4.7506  -4.3137  -4.2651  -3.9253  -3.8752  -3.8033
    -3.6635  -3.6373  -3.3140  -3.2671  -3.1061  -2.9355  -2.9234  -2.9159
    -2.6559  -2.6110  -2.5337  -2.3313  -2.3310  -2.2472  -2.2332  -2.2217
    -2.0121  -1.9518  -1.8991  -1.8730  -1.7833  -1.7538  -1.7481  -1.6015
    -1.5624  -1.4117  -1.4023  -1.3840  -1.2161  -1.1510  -1.0477  -0.9301
    -0.9173  -0.7405  -0.6622  -0.5388  -0.4289  -0.3057  -0.2909  -0.2475
    -0.0412   0.0307   0.2830   0.3403   0.3861   0.4066   0.8731   1.0764
     1.1510   1.5339   1.6465   1.6959   1.7440   1.8349   2.1450   2.2696
     2.5134   2.7582   2.7874   3.0198   3.2820   3.4873   3.6740   3.7925
     3.9113   3.9616   4.0898   4.1500

[...]

          k =-0.5000 0.0000 0.0000 ( 78694 PWs)   bands (ev):

[...]

     the Fermi energy is     0.5656 ev

!    total energy              =   -9109.65303422 Ry
     total all-electron energy =     -9109.653034 Ry
     estimated scf accuracy    <          1.4E-09 Ry
     smearing contrib. (-TS)   =      -0.00000889 Ry
     internal energy E=F+TS    =   -9109.65302533 Ry

     The total energy is F=E-TS. E is the sum of the following terms:
     one-electron contribution =  -17628.15728311 Ry
     hartree contribution      =    8675.77444767 Ry
     xc contribution           =    -366.35895151 Ry
     ewald contribution        =    6476.89981474 Ry
     one-center paw contrib.   =   -6267.81105312 Ry

     convergence has been achieved in  26 iterations

[...]

     Forces acting on atoms (cartesian axes, Ry/au):

     atom    1 type  1   force =     0.01932502    0.06871521   -0.03302527
     atom    2 type  1   force =     0.01932465   -0.06872666    0.03302398
     atom    3 type  1   force =    -0.01936692    0.06872778   -0.03300176
     atom    4 type  1   force =    -0.01938506   -0.06873628    0.03300813
     atom    5 type  2   force =    -0.02184794    0.07642397   -0.02042723
     atom    6 type  2   force =    -0.02184413   -0.07639714    0.02041561
     atom    7 type  2   force =     0.02193053    0.07639354   -0.02043235
     atom    8 type  2   force =     0.02190916   -0.07636904    0.02043065
     atom    9 type  2   force =     0.00003671    0.04043978   -0.03820672
     atom   10 type  2   force =     0.00005259   -0.04043007    0.03822127
     atom   11 type  3   force =     0.01750380   -0.05162860   -0.06254131
     atom   12 type  3   force =     0.01751080    0.05162188    0.06254054
     atom   13 type  3   force =    -0.00834012    0.03040851   -0.05118367
     atom   14 type  3   force =    -0.00834062   -0.03041659    0.05118274
     atom   15 type  3   force =    -0.01746900   -0.05162700   -0.06254760
     atom   16 type  3   force =    -0.01747084    0.05161912    0.06254467
     atom   17 type  3   force =     0.00829096    0.03040766   -0.05118031
     atom   18 type  3   force =     0.00828544   -0.03041586    0.05118073
     atom   19 type  3   force =    -0.00005199    0.03249020   -0.04947759
     atom   20 type  3   force =    -0.00005305   -0.03250041    0.04947549

     Total force =     0.326900     Total SCF correction =     0.000143

     Computing stress (Cartesian axis) and pressure

     negative rho (up, down):  6.656E-02 0.000E+00
          total   stress  (Ry/bohr**3)                   (kbar)     P=       31.43
   0.00014169  -0.00000000  -0.00000000           20.84       -0.00       -0.00
  -0.00000000   0.00032396  -0.00003887           -0.00       47.66       -5.72
  -0.00000000  -0.00003887   0.00017543           -0.00       -5.72       25.81

     BFGS Geometry Optimization
     Energy error            =      0.0E+00 Ry
     Gradient error          =      7.6E-02 Ry/Bohr

     number of scf cycles    =   1
     number of bfgs steps    =   0

     energy             new  =   -9109.6530342195 Ry

     new trust radius        =       0.0829657185 bohr
     new conv_thr            =       0.0000000100 Ry

ATOMIC_POSITIONS (angstrom)
Ta              15.4020671868        0.9512860891       12.4263640115
Ta               6.5817766791        2.7084011014       12.6094718732
Ta               2.2549070795        0.9512927382       12.4262021841
Ta              11.0751952168        2.7083960061       12.6096236355
Ni              12.8528467275        0.9553653887       11.7508799689
Ni               4.0325407092        2.7043420545       13.2849474245
Ni               4.8040718615        0.9553492824       11.7506106245
Ni              13.6243544430        2.7043569232       13.2852124429
Ni               8.8283660913        0.9363233761       12.3479874705
Ni               0.0081047312        2.7233750089       12.6878356349
Te              14.2223049891        2.7174490050       10.5021613152
Te               5.4019881733        0.9422406881       14.5336671361
Te              10.5910197171        0.9310150531       10.4922486463
Te               1.7707364167        2.7286739168       14.5435796965
Te               3.4344444972        2.7174498509       10.5019347782
Te              12.2547443637        0.9422392245       14.5338897616
Te               7.0660058114        0.9310146027       10.4920878192
Te              15.8862863724        2.7286743019       14.5437508048
Te               0.0082714110        0.9321166368       10.8114366499
Te               8.8285298855        2.7275712055       14.2243591214

     Writing config-only to output data dir /ddn/data/physics/eamoujaes/2D-Ta2Ni3Te5/ELASTIC/C22/OUT/ta2ni3te5.save/ :
     XML data file
     NEW-OLD atomic charge density approx. for the potential

[...]

     Energy error            =      8.1E-02 Ry
     Gradient error          =      4.0E-02 Ry/Bohr

[...]

     energy             old  =   -9109.6530342195 Ry
     energy             new  =   -9109.7338834485 Ry

     CASE: energy            _new < energy            _old

[...]

     iteration #  1     ecut=    60.00 Ry     beta= 0.20
     Davidson diagonalization with overlap
     c_bands:  2 eigenvalues not converged
     c_bands:  2 eigenvalues not converged
     ethr =  1.00E-06,  avg # of iterations = 11.3

[...]

     Threshold (ethr) on eigenvalues was too large:
     Diagonalizing with lowered threshold

     Davidson diagonalization with overlap
     ethr =  7.73E-08,  avg # of iterations =  4.0

[...]

     number of scf cycles    =  25
     number of bfgs steps    =  24

     energy             old  =   -9109.7890951393 Ry
     energy             new  =   -9109.7891275325 Ry

     CASE: energy            _new < energy            _old

     new trust radius        =       0.0079871506 bohr
     new conv_thr            =            1.0E-10 Ry

ATOMIC_POSITIONS (angstrom)
Ta              15.4048828977        0.9819802399       12.2911797766
Ta               6.5845760033        2.6777473703       12.7446590860
Ta               2.2520266728        0.9820078377       12.2911187029
Ta              11.0723420815        2.6777188872       12.7447348584
Ni              12.8487581491        0.9882166586       11.7154675888
Ni               4.0284368592        2.6713978945       13.3203622142
Ni               4.8079484449        0.9882479323       11.7153819619
Ni              13.6282755144        2.6713629835       13.3204487393
Ni               8.8285892358        0.9934947557       12.4352420546
Ni               0.0083339914        2.6661893077       12.6005180879
Te              14.2052819346        2.6667969375       10.3241471701
Te               5.3849324937        0.9929727483       14.7117054754
Te              10.5712005165        0.9973621721       10.5540116035
Te               1.7508881590        2.6623588492       14.4818307799
Te               3.4516840966        2.6668268585       10.3238835985
Te              12.2720351199        0.9929452183       14.7119761949
Te               7.0857213323        0.9973979216       10.5540877694
Te              15.9060523547        2.6623164520       14.4817388041
Te               0.0081732672        0.9907801693       10.6218612010
Te               8.8284232387        2.6688112596       14.4138953324

     Writing config-only to output data dir /ddn/data/physics/eamoujaes/2D-Ta2Ni3Te5/ELASTIC/C22/OUT/ta2ni3te5.save/ :
     XML data file
     NEW-OLD atomic charge density approx. for the potential

[...]

     Self-consistent Calculation

[...]

     Threshold (ethr) on eigenvalues was too large:
     Diagonalizing with lowered threshold

     Davidson diagonalization with overlap
     ethr =  1.10E-08,  avg # of iterations =  5.0

[...]

     total energy              =   -9109.78914674 Ry
     estimated scf accuracy    <          1.5E-10 Ry

     iteration # 16     ecut=    60.00 Ry     beta= 0.20
     Davidson diagonalization with overlap
     ethr =  1.00E-13,  avg # of iterations =  2.2

[...]

     End of self-consistent calculation

[...]

          k = 0.0000-2.6197 0.0000 ( 78852 PWs)   bands (ev):

[...]

          k =-0.5000-2.6197 0.0000 ( 78916 PWs)   bands (ev):

  -102.9955-102.9955-102.9955-102.9955-102.7183-102.7182 -67.9770 -67.9770
   -67.9770 -67.9769 -63.5496 -63.5496 -63.5494 -63.5494 -63.3755 -63.3755
   -63.3725 -63.3725 -63.3028 -63.3028 -63.2998 -63.2998 -63.2422 -63.2421
   -63.2279 -63.2278 -62.9335 -62.9334 -34.5256 -34.5255 -34.5244 -34.5244
   -34.4982 -34.4982 -34.4964 -34.4964 -34.4668 -34.4667 -34.4646 -34.4645
   -10.9726 -10.9725 -10.7072 -10.7072 -10.6681 -10.6681 -10.6343 -10.6342
   -10.4299 -10.4299  -6.0742  -6.0742  -5.8879  -5.8878  -5.4401  -5.4400
    -4.9712  -4.9711  -4.7024  -4.7024  -3.8215  -3.8214  -3.7614  -3.7614
    -3.5990  -3.5989  -3.3901  -3.3901  -3.2436  -3.2435  -3.2138  -3.2137
    -3.1006  -3.1006  -2.7286  -2.7286  -2.5979  -2.5979  -2.5171  -2.5171
    -2.0977  -2.0977  -2.0967  -2.0967  -2.0635  -2.0634  -1.7807  -1.7807
    -1.7463  -1.7463  -1.6215  -1.6214  -1.5156  -1.5156  -1.3127  -1.3126
    -1.1923  -1.1923  -1.0256  -1.0256  -0.9199  -0.9199  -0.8794  -0.8794
    -0.7125  -0.7124  -0.5556  -0.5556  -0.4372  -0.4371   0.8099   0.8100
     1.2146   1.2147   1.6289   1.6289   1.6414   1.6416   2.3182   2.3182
     2.4322   2.4323   2.5650   2.5650   2.9719   2.9720   3.9187   3.9188
     4.0062   4.0063   4.1529   4.1530

     the Fermi energy is     0.5768 ev

!    total energy              =   -9109.78914674 Ry
     total all-electron energy =     -9109.789147 Ry
     estimated scf accuracy    <          8.4E-11 Ry
     smearing contrib. (-TS)   =      -0.00000689 Ry
     internal energy E=F+TS    =   -9109.78913985 Ry

     The total energy is F=E-TS. E is the sum of the following terms:
     one-electron contribution =  -17305.38732794 Ry
     hartree contribution      =    8514.79143283 Ry
     xc contribution           =    -365.35387921 Ry
     ewald contribution        =    6313.95370829 Ry
     one-center paw contrib.   =   -6267.79307381 Ry

     convergence has been achieved in  16 iterations

     negative rho (up, down):  6.442E-02 0.000E+00

     Forces acting on atoms (cartesian axes, Ry/au):

     atom    1 type  1   force =    -0.00039755    0.00034874   -0.00024239
     atom    2 type  1   force =    -0.00038960   -0.00036096    0.00024160
     atom    3 type  1   force =     0.00039285    0.00034793   -0.00023656
     atom    4 type  1   force =     0.00039412   -0.00035924    0.00023676
     atom    5 type  2   force =     0.00003360   -0.00040610   -0.00014165
     atom    6 type  2   force =     0.00003949    0.00043638    0.00014839
     atom    7 type  2   force =    -0.00001463   -0.00040704   -0.00015752
     atom    8 type  2   force =    -0.00002307    0.00043800    0.00015785
     atom    9 type  2   force =    -0.00000076   -0.00077734    0.00015105
     atom   10 type  2   force =    -0.00001291    0.00079519   -0.00014541
     atom   11 type  3   force =     0.00023595    0.00065442   -0.00016175
     atom   12 type  3   force =     0.00024594   -0.00068483    0.00015303
     atom   13 type  3   force =    -0.00025972   -0.00055292    0.00016979
     atom   14 type  3   force =    -0.00025626    0.00055165   -0.00017078
     atom   15 type  3   force =    -0.00025591    0.00065464   -0.00012702
     atom   16 type  3   force =    -0.00026437   -0.00068618    0.00011977
     atom   17 type  3   force =     0.00026730   -0.00055403    0.00015174
     atom   18 type  3   force =     0.00026045    0.00055370   -0.00014884
     atom   19 type  3   force =     0.00000351   -0.00094065    0.00028098
     atom   20 type  3   force =     0.00000157    0.00094862   -0.00027905

     Total force =     0.003018     Total SCF correction =     0.000062

     Computing stress (Cartesian axis) and pressure

     negative rho (up, down):  6.442E-02 0.000E+00
          total   stress  (Ry/bohr**3)                   (kbar)     P=        7.13
   0.00004565   0.00000000  -0.00000000            6.71        0.00       -0.00
   0.00000000   0.00014206   0.00000067            0.00       20.90        0.10
  -0.00000000   0.00000067  -0.00004229           -0.00        0.10       -6.22

     Energy error            =      1.9E-05 Ry
     Gradient error          =      9.5E-04 Ry/Bohr

     bfgs converged in  26 scf cycles and  25 bfgs steps
     (criteria: energy <  1.0E-04 Ry, force <  1.0E-03 Ry/Bohr)

     End of BFGS Geometry Optimization

     Final energy             =   -9109.7891467371 Ry

     File /ddn/data/physics/eamoujaes/2D-Ta2Ni3Te5/ELASTIC/C22/OUT/ta2ni3te5.bfgs deleted, as requested
Begin final coordinates

ATOMIC_POSITIONS (angstrom)
Ta              15.4048828977        0.9819802399       12.2911797766
Ta               6.5845760033        2.6777473703       12.7446590860
Ta               2.2520266728        0.9820078377       12.2911187029
Ta              11.0723420815        2.6777188872       12.7447348584
Ni              12.8487581491        0.9882166586       11.7154675888
Ni               4.0284368592        2.6713978945       13.3203622142
Ni               4.8079484449        0.9882479323       11.7153819619
Ni              13.6282755144        2.6713629835       13.3204487393
Ni               8.8285892358        0.9934947557       12.4352420546
Ni               0.0083339914        2.6661893077       12.6005180879
Te              14.2052819346        2.6667969375       10.3241471701
Te               5.3849324937        0.9929727483       14.7117054754
Te              10.5712005165        0.9973621721       10.5540116035
Te               1.7508881590        2.6623588492       14.4818307799
Te               3.4516840966        2.6668268585       10.3238835985
Te              12.2720351199        0.9929452183       14.7119761949
Te               7.0857213323        0.9973979216       10.5540877694
Te              15.9060523547        2.6623164520       14.4817388041
Te               0.0081732672        0.9907801693       10.6218612010
Te               8.8284232387        2.6688112596       14.4138953324
End final coordinates

     Writing all to output data dir /ddn/data/physics/eamoujaes/2D-Ta2Ni3Te5/ELASTIC/C22/OUT/ta2ni3te5.save/ :
     XML data file, charge density, pseudopotentials, collected wavefunctions

     General routines
                                        2.46s GPU  (    6872 calls)
                                        0.07s GPU  (     503 calls)
                                      517.68s GPU  (  315850 calls)

     Parallel routines

   This run was terminated on:   3:34: 8  28Jul2024

   JOB DONE.