     Program PWSCF v.7.3 starts on 28Jul2024 at  9:19:11

     Waiting for input...
     Reading input from standard input
Warning: card &CELL ignored
Warning: card CELL_DYNAMICS='BFGS' ignored
Warning: card PRESS=0.0 ignored
Warning: card CELL_DOFREE='2DXY' ignored
Warning: card / ignored

     Current dimensions of program PWSCF are:
     Max number of different atomic species (ntypx) = 10
     Max number of k-points (npk) =  40000
     Max angular momentum in pseudopotentials (lmaxx) =  4
read_pp_mesh; mismatch in mesh size, discarding the one in header
read_pp_mesh; mismatch in mesh size, discarding the one in header
read_pp_mesh; mismatch in mesh size, discarding the one in header

     Subspace diagonalization in iterative solution of the eigenvalue problem:
     a serial algorithm will be used

     Using Slab Decomposition

     bravais-lattice index     =            0
     lattice parameter (alat)  =      33.3357  a.u.
     unit-cell volume          =   10470.8208 (a.u.)^3
     number of atoms/cell      =           20
     number of atomic types    =            3
     number of electrons       =       220.00
     number of Kohn-Sham states=          132
     kinetic-energy cutoff     =      60.0000  Ry
     charge density cutoff     =     480.0000  Ry
     scf convergence threshold =      1.0E-08
     mixing beta               =       0.2000
     number of iterations used =            8  plain     mixing
     energy convergence thresh.=      1.0E-04
     force convergence thresh. =      1.0E-03
     Exchange-correlation= SLA PW PBX PBC
                           (   1   4   3   4   0   0   0)
     nstep                     =         2000

     celldm(1)=  33.335714  celldm(2)=   0.000000  celldm(3)=   0.000000
     celldm(4)=   0.000000  celldm(5)=   0.000000  celldm(6)=   0.000000

     crystal axes: (cart. coord. in units of alat)
               a(1) = (   1.000000   0.000000   0.000000 )
               a(2) = (   0.000000   0.199161   0.000000 )
               a(3) = (   0.000000   0.000000   1.419211 )

     reciprocal axes: (cart. coord. in units 2 pi/alat)
               b(1) = (  1.000000  0.000000  0.000000 )
               b(2) = (  0.000000  5.021063  0.000000 )
               b(3) = (  0.000000  0.000000  0.704617 )

     PseudoPot. # 1 for Ta read from file:
     /ddn/data/physics/eamoujaes/PSEUDO-CREATED/Ta.upf
     MD5 check sum: d865b2c2c09566b116f2b8decb2c153d
     Pseudo is Projector augmented-wave + core cor, Zval = 13.0
     Generated using ATOMPAW code
     Shape of augmentation charge: SINC**2
     Using radial grid of 2342 points,  6 beta functions with:
                l(1) =   0
                l(2) =   0
                l(3) =   1
                l(4) =   1
                l(5) =   2
                l(6) =   2
     Q(r) pseudized with 0 coefficients

     PseudoPot. # 2 for Ni read from file:
     /ddn/data/physics/eamoujaes/PSEUDO-CREATED/Ni.upf
     MD5 check sum: 85a2a5d9d38f4289a1cc30d5adb66a03
     Pseudo is Projector augmented-wave + core cor, Zval = 18.0
     Generated using ATOMPAW code
     Shape of augmentation charge: SINC**2
     Using radial grid of 2342 points,  6 beta functions with:
                l(1) =   0
                l(2) =   0
                l(3) =   1
                l(4) =   1
                l(5) =   2
                l(6) =   2
     Q(r) pseudized with 0 coefficients

     PseudoPot. # 3 for Te read from file:
     /ddn/data/physics/eamoujaes/PSEUDO-CREATED/Te.upf
     MD5 check sum: 8d958f193a7511a138982c2e72838810
     Pseudo is Projector augmented-wave + core cor, Zval =  6.0
     Generated using ATOMPAW code
     Shape of augmentation charge: SINC**2
     Using radial grid of 2342 points,  4 beta functions with:
                l(1) =   0
                l(2) =   0
                l(3) =   1
                l(4) =   1
     Q(r) pseudized with 0 coefficients

     atomic species   valence    mass     pseudopotential
     Ta               13.00   180.94790     Ta( 1.00)
     Ni               18.00    58.69340     Ni( 1.00)
     Te                6.00   127.60000     Te( 1.00)

     No symmetry found

   Cartesian axes

     site n.     atom                  positions (alat units)
         1        Ta     tau(   1) = (   0.8725286   0.0518649   0.7054131  )
         2        Ta     tau(   2) = (   0.3725263   0.1555948   0.7138118  )
         3        Ta     tau(   3) = (   0.1284065   0.0518649   0.7054032  )
         4        Ta     tau(   4) = (   0.6284092   0.1555948   0.7138208  )
         5        Ni     tau(   5) = (   0.7292542   0.0518649   0.6667436  )
         6        Ni     tau(   6) = (   0.2292509   0.1555948   0.7524812  )
         7        Ni     tau(   7) = (   0.2716741   0.0518649   0.6667284  )
         8        Ni     tau(   8) = (   0.7716766   0.1555948   0.7524957  )
         9        Ni     tau(   9) = (   0.5004590   0.0518649   0.7011256  )
        10        Ni     tau(  10) = (   0.0004579   0.1555948   0.7180981  )
        11        Te     tau(  11) = (   0.8057052   0.1555948   0.5972198  )
        12        Te     tau(  12) = (   0.3057012   0.0518649   0.8220046  )
        13        Te     tau(  13) = (   0.6006311   0.0518649   0.5963172  )
        14        Te     tau(  14) = (   0.1006292   0.1555948   0.8229072  )
        15        Te     tau(  15) = (   0.1952149   0.1555948   0.5972072  )
        16        Te     tau(  16) = (   0.6952178   0.0518649   0.8220171  )
        17        Te     tau(  17) = (   0.4003072   0.0518649   0.5963080  )
        18        Te     tau(  18) = (   0.9003091   0.1555948   0.8229170  )
        19        Te     tau(  19) = (   0.0004704   0.0518649   0.6143601  )
        20        Te     tau(  20) = (   0.5004710   0.1555948   0.8048626  )

     number of k points=    12  Gaussian smearing, width (Ry)=  0.0020
                       cart. coord. in units 2pi/alat
        k(    1) = (   0.0000000   0.0000000   0.0000000), wk =   0.1000000
        k(    2) = (   0.0000000   0.5021063   0.0000000), wk =   0.2000000
        k(    3) = (   0.0000000   1.0042126   0.0000000), wk =   0.2000000
        k(    4) = (   0.0000000   1.5063188   0.0000000), wk =   0.2000000
        k(    5) = (   0.0000000   2.0084251   0.0000000), wk =   0.2000000
        k(    6) = (   0.0000000  -2.5105314   0.0000000), wk =   0.1000000
        k(    7) = (  -0.5000000   0.0000000   0.0000000), wk =   0.1000000
        k(    8) = (  -0.5000000   0.5021063   0.0000000), wk =   0.2000000
        k(    9) = (  -0.5000000   1.0042126   0.0000000), wk =   0.2000000
        k(   10) = (  -0.5000000   1.5063188   0.0000000), wk =   0.2000000
        k(   11) = (  -0.5000000   2.0084251   0.0000000), wk =   0.2000000
        k(   12) = (  -0.5000000  -2.5105314   0.0000000), wk =   0.1000000

     Initial potential from superposition of free atoms

     starting charge     219.9927, renormalised to     220.0000

     negative rho (up, down):  5.007E-02 0.000E+00
     Starting wfcs are  260 randomized atomic wfcs
     Checking if some PAW data can be deallocated...

     Self-consistent Calculation

     iteration #  1     ecut=    60.00 Ry     beta= 0.20
     Davidson diagonalization with overlap
     ethr =  1.00E-02,  avg # of iterations =  2.8

     negative rho (up, down):  5.055E-02 0.000E+00

     total energy              =   -9107.95416197 Ry
     estimated scf accuracy    <       7.65278972 Ry

[...]

     iteration #  9     ecut=    60.00 Ry     beta= 0.20
     Davidson diagonalization with overlap
     c_bands:  1 eigenvalues not converged
     ethr =  3.52E-05,  avg # of iterations =  7.3

[...]

     End of self-consistent calculation

          k = 0.0000 0.0000 0.0000 ( 82143 PWs)   bands (ev):

  -103.2519-103.2519-103.2361-103.2361-102.8942-102.8941 -68.2939 -68.2938
   -68.2933 -68.2933 -63.8143 -63.8142 -63.8064 -63.8063 -63.6720 -63.6719
   -63.6011 -63.6011 -63.5651 -63.5651 -63.5065 -63.5065 -63.3869 -63.3868
   -63.3795 -63.3789 -63.1678 -63.1677 -34.8251 -34.8247 -34.8231 -34.8230
   -34.7926 -34.7887 -34.7886 -34.7844 -34.7240 -34.7239 -34.7236 -34.7235
   -13.0457 -12.7615 -12.6285 -12.1542 -12.1407 -11.9019 -11.8386 -11.8140
   -11.7321 -11.4763  -6.2104  -5.9609  -5.7938  -5.7119  -5.4907  -5.4655
    -5.4644  -4.8310  -4.6930  -4.2589  -4.2028  -3.8658  -3.8079  -3.7885
    -3.6478  -3.6181  -3.5121  -3.4787  -3.1103  -3.0647  -3.0420  -2.9210
    -2.6795  -2.6352  -2.6061  -2.5324  -2.4836  -2.2910  -2.2492  -2.2422
    -2.1235  -2.1183  -2.0283  -1.9034  -1.8670  -1.8180  -1.7801  -1.7301
    -1.7035  -1.6728  -1.5452  -1.5111  -1.2638  -1.2456  -1.1531  -1.0580
    -0.9932  -0.9647  -0.8280  -0.7586  -0.6353  -0.5981  -0.5257  -0.4365
    -0.3838  -0.3667  -0.2487  -0.2470   0.1563   0.1724   0.2673   0.5037
     0.9470   1.3157   1.4071   1.4167   1.5595   1.5889   1.6607   1.6897
     2.1992   2.3141   2.3302   2.6866   2.8267   2.8950   3.3852   3.5964
     3.7264   3.7701   3.8329   3.8455

[...]

          k =-0.5000 0.0000 0.0000 ( 82186 PWs)   bands (ev):

[...]

     the Fermi energy is     0.2245 ev

!    total energy              =   -9109.82343488 Ry
     total all-electron energy =     -9109.823435 Ry
     estimated scf accuracy    <          3.4E-09 Ry
     smearing contrib. (-TS)   =      -0.00001073 Ry
     internal energy E=F+TS    =   -9109.82342415 Ry

     The total energy is F=E-TS. E is the sum of the following terms:
     one-electron contribution =  -16986.56754248 Ry
     hartree contribution      =    8353.35804298 Ry
     xc contribution           =    -365.58546771 Ry
     ewald contribution        =    6156.73883212 Ry
     one-center paw contrib.   =   -6267.76728907 Ry

     convergence has been achieved in  27 iterations

[...]

     Forces acting on atoms (cartesian axes, Ry/au):

     atom    1 type  1   force =     0.00801061    0.02671757   -0.01278012
     atom    2 type  1   force =     0.00799218   -0.02671128    0.01278212
     atom    3 type  1   force =    -0.00802441    0.02672004   -0.01273772
     atom    4 type  1   force =    -0.00803501   -0.02672081    0.01275413
     atom    5 type  2   force =    -0.00702969    0.03277952   -0.00887156
     atom    6 type  2   force =    -0.00698630   -0.03278130    0.00886306
     atom    7 type  2   force =     0.00707114    0.03277733   -0.00886062
     atom    8 type  2   force =     0.00706889   -0.03277674    0.00888209
     atom    9 type  2   force =     0.00004784    0.01542113   -0.01292254
     atom   10 type  2   force =     0.00001345   -0.01542478    0.01292553
     atom   11 type  3   force =     0.00502438   -0.02109823   -0.02541830
     atom   12 type  3   force =     0.00503223    0.02110023    0.02541026
     atom   13 type  3   force =    -0.00273038    0.01252653   -0.02179481
     atom   14 type  3   force =    -0.00272927   -0.01252674    0.02178653
     atom   15 type  3   force =    -0.00499225   -0.02109836   -0.02542319
     atom   16 type  3   force =    -0.00499463    0.02109820    0.02541575
     atom   17 type  3   force =     0.00268403    0.01252530   -0.02179065
     atom   18 type  3   force =     0.00267928   -0.01252582    0.02178822
     atom   19 type  3   force =    -0.00004932    0.01431012   -0.01986832
     atom   20 type  3   force =    -0.00005275   -0.01431190    0.01986012

     Total force =     0.132682     Total SCF correction =     0.000129

     Computing stress (Cartesian axis) and pressure

     negative rho (up, down):  6.586E-02 0.000E+00
          total   stress  (Ry/bohr**3)                   (kbar)     P=       11.85
   0.00005925   0.00000000   0.00000000            8.72        0.00        0.00
   0.00000000   0.00013653  -0.00001670            0.00       20.08       -2.46
   0.00000000  -0.00001670   0.00004582            0.00       -2.46        6.74

     BFGS Geometry Optimization
     Energy error            =      0.0E+00 Ry
     Gradient error          =      3.3E-02 Ry/Bohr

     number of scf cycles    =   1
     number of bfgs steps    =   0

     energy             new  =   -9109.8234348754 Ry

     new trust radius        =       0.0346868156 bohr
     new conv_thr            =       0.0000000100 Ry

ATOMIC_POSITIONS (angstrom)
Ta              15.3960798572        0.9290618942       12.4370772845
Ta               6.5757797937        2.7306346820       12.5987603403
Ta               2.2609092809        0.9290631987       12.4369254517
Ta              11.0812014005        2.7306296380       12.5989056842
Ni              12.8606882079        0.9322697374       11.7569949678
Ni               4.0404031342        2.7274225620       13.2788340834
Ni               4.7962086074        0.9322685785       11.7567341194
Ni              13.6165013096        2.7274249792       13.2791012082
Ni               8.8283719792        0.9230840768       12.3613672855
Ni               0.0080840194        2.7366072369       12.6744497070
Te              14.2157011605        2.7336049774       10.5218059683
Te               5.3953847961        0.9260893234       14.5140186384
Te              10.5939882614        0.9215523207       10.5078005570
Te               1.7737058170        2.7381408133       14.5280238912
Te               3.4410469055        2.7336049109       10.5215801698
Te              12.2613464904        0.9260882526       14.5142419859
Te               7.0630387490        0.9215516659       10.5076401587
Te              15.8833197223        2.7381413023       14.5281969556
Te               0.0082728219        0.9224961523       10.8271052032
Te               8.8285300491        2.7371961514       14.2086873396

     Writing config-only to output data dir /ddn/data/physics/eamoujaes/2D-Ta2Ni3Te5/ELASTIC/C22/OUT/ta2ni3te5.save/ :
     XML data file
     NEW-OLD atomic charge density approx. for the potential

[...]

     Energy error            =      1.4E-02 Ry
     Gradient error          =      1.9E-02 Ry/Bohr

[...]

     energy             old  =   -9109.8234348754 Ry
     energy             new  =   -9109.8378032003 Ry

     CASE: energy            _new < energy            _old

[...]

     iteration #  1     ecut=    60.00 Ry     beta= 0.20
     Davidson diagonalization with overlap
     c_bands:  2 eigenvalues not converged
     ethr =  1.00E-06,  avg # of iterations = 11.3

[...]

     Threshold (ethr) on eigenvalues was too large:
     Diagonalizing with lowered threshold

     Davidson diagonalization with overlap
     ethr =  5.03E-08,  avg # of iterations =  4.0

[...]

     number of scf cycles    =  13
     number of bfgs steps    =  12

     energy             old  =   -9109.8515289502 Ry
     energy             new  =   -9109.8515470107 Ry

     CASE: energy            _new < energy            _old

     new trust radius        =       0.0036695416 bohr
     new conv_thr            =            1.0E-10 Ry

ATOMIC_POSITIONS (angstrom)
Ta              15.4001391917        0.9530940970       12.4071111247
Ta               6.5799065945        2.7065995304       12.6287090286
Ta               2.2567232409        0.9530914319       12.4069193228
Ta              11.0769708935        2.7066029106       12.6289003503
Ni              12.8657845691        0.9529094220       11.7350608877
Ni               4.0455468376        2.7067848129       13.3007712935
Ni               4.7912416933        0.9529072402       11.7347787440
Ni              13.6114747016        2.7067846916       13.3010555992
Ni               8.8285042863        0.9500515071       12.3521716572
Ni               0.0082418934        2.7096397344       12.6836520958
Te              14.2286375077        2.7068834673       10.4544325688
Te               5.4083887516        0.9528122816       14.5813881689
Te              10.6010975082        0.9500533053       10.4977995017
Te               1.7808428263        2.7096400524       14.5380254660
Te               3.4281356517        2.7068777871       10.4542471825
Te              12.2483886528        0.9528149585       14.5815816021
Te               7.0559247506        0.9500514919       10.4976634738
Te              15.8761743549        2.7096424650       14.5381657408
Te               0.0080917736        0.9528024473       10.7783810561
Te               8.8283466840        2.7068888197       14.2574361353

     Writing config-only to output data dir /ddn/data/physics/eamoujaes/2D-Ta2Ni3Te5/ELASTIC/C22/OUT/ta2ni3te5.save/ :
     XML data file
     NEW-OLD atomic charge density approx. for the potential

[...]

     Self-consistent Calculation

[...]

     Threshold (ethr) on eigenvalues was too large:
     Diagonalizing with lowered threshold

     Davidson diagonalization with overlap
     ethr =  2.54E-09,  avg # of iterations =  6.0

[...]

     total energy              =   -9109.85156540 Ry
     estimated scf accuracy    <          1.2E-10 Ry

     iteration # 15     ecut=    60.00 Ry     beta= 0.20
     Davidson diagonalization with overlap
     ethr =  1.00E-13,  avg # of iterations =  1.5

[...]

     End of self-consistent calculation

[...]

          k = 0.0000-2.5105 0.0000 ( 82320 PWs)   bands (ev):

[...]

          k =-0.5000-2.5105 0.0000 ( 82216 PWs)   bands (ev):

  -103.1937-103.1937-103.1935-103.1935-102.8603-102.8603 -68.3379 -68.3379
   -68.3378 -68.3378 -63.7542 -63.7542 -63.7540 -63.7539 -63.5814 -63.5814
   -63.5807 -63.5807 -63.4864 -63.4864 -63.4861 -63.4861 -63.3600 -63.3600
   -63.3538 -63.3537 -63.1141 -63.1141 -34.8599 -34.8599 -34.8590 -34.8590
   -34.8410 -34.8410 -34.8390 -34.8390 -34.7977 -34.7977 -34.7955 -34.7955
   -11.2335 -11.2334 -11.0545 -11.0545 -11.0188 -11.0188 -10.9932 -10.9932
   -10.7597 -10.7597  -6.2040  -6.2040  -5.9799  -5.9799  -5.4618  -5.4618
    -4.9705  -4.9705  -4.7695  -4.7695  -3.9605  -3.9605  -3.9430  -3.9430
    -3.6953  -3.6952  -3.5380  -3.5380  -3.4090  -3.4090  -3.3348  -3.3348
    -3.3195  -3.3195  -2.9819  -2.9819  -2.8113  -2.8113  -2.7378  -2.7378
    -2.4070  -2.4070  -2.3007  -2.3007  -2.1764  -2.1764  -2.0394  -2.0394
    -1.9355  -1.9355  -1.7863  -1.7863  -1.7757  -1.7757  -1.5722  -1.5722
    -1.3676  -1.3676  -1.2402  -1.2402  -1.1624  -1.1624  -1.0403  -1.0403
    -0.9563  -0.9563  -0.7805  -0.7805  -0.5892  -0.5892   0.5774   0.5774
     1.1600   1.1600   1.4079   1.4079   1.4598   1.4598   2.1260   2.1260
     2.2577   2.2577   2.5316   2.5316   2.8087   2.8087   3.2372   3.2372
     3.3250   3.3250   3.7153   3.7153

     the Fermi energy is     0.2024 ev

!    total energy              =   -9109.85156540 Ry
     total all-electron energy =     -9109.851565 Ry
     estimated scf accuracy    <          8.9E-11 Ry
     smearing contrib. (-TS)   =      -0.00017925 Ry
     internal energy E=F+TS    =   -9109.85138616 Ry

     The total energy is F=E-TS. E is the sum of the following terms:
     one-electron contribution =  -16844.23741522 Ry
     hartree contribution      =    8282.37632507 Ry
     xc contribution           =    -365.15741290 Ry
     ewald contribution        =    6084.92067199 Ry
     one-center paw contrib.   =   -6267.75355510 Ry

     convergence has been achieved in  15 iterations

     negative rho (up, down):  6.519E-02 0.000E+00

     Forces acting on atoms (cartesian axes, Ry/au):

     atom    1 type  1   force =     0.00000038   -0.00047587   -0.00045682
     atom    2 type  1   force =    -0.00001631    0.00047562    0.00045957
     atom    3 type  1   force =     0.00000814   -0.00047516   -0.00045844
     atom    4 type  1   force =     0.00000684    0.00047517    0.00046132
     atom    5 type  2   force =    -0.00046121   -0.00099289    0.00010176
     atom    6 type  2   force =    -0.00047173    0.00099198   -0.00010859
     atom    7 type  2   force =     0.00045260   -0.00099204    0.00010318
     atom    8 type  2   force =     0.00046715    0.00099332   -0.00010083
     atom    9 type  2   force =    -0.00000764    0.00010507    0.00062340
     atom   10 type  2   force =     0.00000462   -0.00010507   -0.00062599
     atom   11 type  3   force =    -0.00063966    0.00072516    0.00023220
     atom   12 type  3   force =    -0.00063666   -0.00072566   -0.00023015
     atom   13 type  3   force =    -0.00049427    0.00003091    0.00011133
     atom   14 type  3   force =    -0.00049278   -0.00003077   -0.00011435
     atom   15 type  3   force =     0.00064086    0.00072592    0.00023494
     atom   16 type  3   force =     0.00063791   -0.00072587   -0.00023336
     atom   17 type  3   force =     0.00049743    0.00003067    0.00010782
     atom   18 type  3   force =     0.00049368   -0.00003059   -0.00011154
     atom   19 type  3   force =     0.00000466   -0.00002025   -0.00091163
     atom   20 type  3   force =     0.00000600    0.00002034    0.00091619

     Total force =     0.003748     Total SCF correction =     0.000055

     Computing stress (Cartesian axis) and pressure

     negative rho (up, down):  6.519E-02 0.000E+00
          total   stress  (Ry/bohr**3)                   (kbar)     P=        2.44
   0.00002413   0.00000000  -0.00000000            3.55        0.00       -0.00
   0.00000000   0.00006612  -0.00000053            0.00        9.73       -0.08
  -0.00000000  -0.00000053  -0.00004045           -0.00       -0.08       -5.95

     Energy error            =      1.8E-05 Ry
     Gradient error          =      9.9E-04 Ry/Bohr

     bfgs converged in  14 scf cycles and  13 bfgs steps
     (criteria: energy <  1.0E-04 Ry, force <  1.0E-03 Ry/Bohr)

     End of BFGS Geometry Optimization

     Final energy             =   -9109.8515654038 Ry

     File /ddn/data/physics/eamoujaes/2D-Ta2Ni3Te5/ELASTIC/C22/OUT/ta2ni3te5.bfgs deleted, as requested
Begin final coordinates

ATOMIC_POSITIONS (angstrom)
Ta              15.4001391917        0.9530940970       12.4071111247
Ta               6.5799065945        2.7065995304       12.6287090286
Ta               2.2567232409        0.9530914319       12.4069193228
Ta              11.0769708935        2.7066029106       12.6289003503
Ni              12.8657845691        0.9529094220       11.7350608877
Ni               4.0455468376        2.7067848129       13.3007712935
Ni               4.7912416933        0.9529072402       11.7347787440
Ni              13.6114747016        2.7067846916       13.3010555992
Ni               8.8285042863        0.9500515071       12.3521716572
Ni               0.0082418934        2.7096397344       12.6836520958
Te              14.2286375077        2.7068834673       10.4544325688
Te               5.4083887516        0.9528122816       14.5813881689
Te              10.6010975082        0.9500533053       10.4977995017
Te               1.7808428263        2.7096400524       14.5380254660
Te               3.4281356517        2.7068777871       10.4542471825
Te              12.2483886528        0.9528149585       14.5815816021
Te               7.0559247506        0.9500514919       10.4976634738
Te              15.8761743549        2.7096424650       14.5381657408
Te               0.0080917736        0.9528024473       10.7783810561
Te               8.8283466840        2.7068888197       14.2574361353
End final coordinates

     Writing all to output data dir /ddn/data/physics/eamoujaes/2D-Ta2Ni3Te5/ELASTIC/C22/OUT/ta2ni3te5.save/ :
     XML data file, charge density, pseudopotentials, collected wavefunctions

     General routines
                                        1.40s GPU  (    3656 calls)
                                        0.04s GPU  (     271 calls)
                                      307.80s GPU  (  167404 calls)

     Parallel routines

   This run was terminated on:  12:31:42  28Jul2024

   JOB DONE.