     Program PWSCF v.7.3 starts on 28Jul2024 at 12:32: 2

     Waiting for input...
     Reading input from standard input
Warning: card &CELL ignored
Warning: card CELL_DYNAMICS='BFGS' ignored
Warning: card PRESS=0.0 ignored
Warning: card CELL_DOFREE='2DXY' ignored
Warning: card / ignored

     Current dimensions of program PWSCF are:
     Max number of different atomic species (ntypx) = 10
     Max number of k-points (npk) =  40000
     Max angular momentum in pseudopotentials (lmaxx) =  4
read_pp_mesh; mismatch in mesh size, discarding the one in header
read_pp_mesh; mismatch in mesh size, discarding the one in header
read_pp_mesh; mismatch in mesh size, discarding the one in header

     Subspace diagonalization in iterative solution of the eigenvalue problem:
     a serial algorithm will be used

     Using Slab Decomposition

     bravais-lattice index     =            0
     lattice parameter (alat)  =      33.3357  a.u.
     unit-cell volume          =   10688.9816 (a.u.)^3
     number of atoms/cell      =           20
     number of atomic types    =            3
     number of electrons       =       220.00
     number of Kohn-Sham states=          132
     kinetic-energy cutoff     =      60.0000  Ry
     charge density cutoff     =     480.0000  Ry
     scf convergence threshold =      1.0E-08
     mixing beta               =       0.2000
     number of iterations used =            8  plain     mixing
     energy convergence thresh.=      1.0E-04
     force convergence thresh. =      1.0E-03
     Exchange-correlation= SLA PW PBX PBC
                           (   1   4   3   4   0   0   0)
     nstep                     =         2000

     celldm(1)=  33.335714  celldm(2)=   0.000000  celldm(3)=   0.000000
     celldm(4)=   0.000000  celldm(5)=   0.000000  celldm(6)=   0.000000

     crystal axes: (cart. coord. in units of alat)
               a(1) = (   1.000000   0.000000   0.000000 )
               a(2) = (   0.000000   0.203311   0.000000 )
               a(3) = (   0.000000   0.000000   1.419211 )

     reciprocal axes: (cart. coord. in units 2 pi/alat)
               b(1) = (  1.000000  0.000000  0.000000 )
               b(2) = (  0.000000  4.918584  0.000000 )
               b(3) = (  0.000000  0.000000  0.704617 )

     PseudoPot. # 1 for Ta read from file:
     /ddn/data/physics/eamoujaes/PSEUDO-CREATED/Ta.upf
     MD5 check sum: d865b2c2c09566b116f2b8decb2c153d
     Pseudo is Projector augmented-wave + core cor, Zval = 13.0
     Generated using ATOMPAW code
     Shape of augmentation charge: SINC**2
     Using radial grid of 2342 points,  6 beta functions with:
                l(1) =   0
                l(2) =   0
                l(3) =   1
                l(4) =   1
                l(5) =   2
                l(6) =   2
     Q(r) pseudized with 0 coefficients

     PseudoPot. # 2 for Ni read from file:
     /ddn/data/physics/eamoujaes/PSEUDO-CREATED/Ni.upf
     MD5 check sum: 85a2a5d9d38f4289a1cc30d5adb66a03
     Pseudo is Projector augmented-wave + core cor, Zval = 18.0
     Generated using ATOMPAW code
     Shape of augmentation charge: SINC**2
     Using radial grid of 2342 points,  6 beta functions with:
                l(1) =   0
                l(2) =   0
                l(3) =   1
                l(4) =   1
                l(5) =   2
                l(6) =   2
     Q(r) pseudized with 0 coefficients

     PseudoPot. # 3 for Te read from file:
     /ddn/data/physics/eamoujaes/PSEUDO-CREATED/Te.upf
     MD5 check sum: 8d958f193a7511a138982c2e72838810
     Pseudo is Projector augmented-wave + core cor, Zval =  6.0
     Generated using ATOMPAW code
     Shape of augmentation charge: SINC**2
     Using radial grid of 2342 points,  4 beta functions with:
                l(1) =   0
                l(2) =   0
                l(3) =   1
                l(4) =   1
     Q(r) pseudized with 0 coefficients

     atomic species   valence    mass     pseudopotential
     Ta               13.00   180.94790     Ta( 1.00)
     Ni               18.00    58.69340     Ni( 1.00)
     Te                6.00   127.60000     Te( 1.00)

     No symmetry found

   Cartesian axes

     site n.     atom                  positions (alat units)
         1        Ta     tau(   1) = (   0.8725286   0.0518649   0.7054131  )
         2        Ta     tau(   2) = (   0.3725263   0.1555948   0.7138118  )
         3        Ta     tau(   3) = (   0.1284065   0.0518649   0.7054032  )
         4        Ta     tau(   4) = (   0.6284092   0.1555948   0.7138208  )
         5        Ni     tau(   5) = (   0.7292542   0.0518649   0.6667436  )
         6        Ni     tau(   6) = (   0.2292509   0.1555948   0.7524812  )
         7        Ni     tau(   7) = (   0.2716741   0.0518649   0.6667284  )
         8        Ni     tau(   8) = (   0.7716766   0.1555948   0.7524957  )
         9        Ni     tau(   9) = (   0.5004590   0.0518649   0.7011256  )
        10        Ni     tau(  10) = (   0.0004579   0.1555948   0.7180981  )
        11        Te     tau(  11) = (   0.8057052   0.1555948   0.5972198  )
        12        Te     tau(  12) = (   0.3057012   0.0518649   0.8220046  )
        13        Te     tau(  13) = (   0.6006311   0.0518649   0.5963172  )
        14        Te     tau(  14) = (   0.1006292   0.1555948   0.8229072  )
        15        Te     tau(  15) = (   0.1952149   0.1555948   0.5972072  )
        16        Te     tau(  16) = (   0.6952178   0.0518649   0.8220171  )
        17        Te     tau(  17) = (   0.4003072   0.0518649   0.5963080  )
        18        Te     tau(  18) = (   0.9003091   0.1555948   0.8229170  )
        19        Te     tau(  19) = (   0.0004704   0.0518649   0.6143601  )
        20        Te     tau(  20) = (   0.5004710   0.1555948   0.8048626  )

     number of k points=    12  Gaussian smearing, width (Ry)=  0.0020
                       cart. coord. in units 2pi/alat
        k(    1) = (   0.0000000   0.0000000   0.0000000), wk =   0.1000000
        k(    2) = (   0.0000000   0.4918584   0.0000000), wk =   0.2000000
        k(    3) = (   0.0000000   0.9837167   0.0000000), wk =   0.2000000
        k(    4) = (   0.0000000   1.4755751   0.0000000), wk =   0.2000000
        k(    5) = (   0.0000000   1.9674334   0.0000000), wk =   0.2000000
        k(    6) = (   0.0000000  -2.4592918   0.0000000), wk =   0.1000000
        k(    7) = (  -0.5000000   0.0000000   0.0000000), wk =   0.1000000
        k(    8) = (  -0.5000000   0.4918584   0.0000000), wk =   0.2000000
        k(    9) = (  -0.5000000   0.9837167   0.0000000), wk =   0.2000000
        k(   10) = (  -0.5000000   1.4755751   0.0000000), wk =   0.2000000
        k(   11) = (  -0.5000000   1.9674334   0.0000000), wk =   0.2000000
        k(   12) = (  -0.5000000  -2.4592918   0.0000000), wk =   0.1000000

     Initial potential from superposition of free atoms

     starting charge     219.9927, renormalised to     220.0000

     negative rho (up, down):  5.087E-02 0.000E+00
     Starting wfcs are  260 randomized atomic wfcs
     Checking if some PAW data can be deallocated...

     Self-consistent Calculation

     iteration #  1     ecut=    60.00 Ry     beta= 0.20
     Davidson diagonalization with overlap
     ethr =  1.00E-02,  avg # of iterations =  2.8

     negative rho (up, down):  5.140E-02 0.000E+00

     total energy              =   -9108.00381287 Ry
     estimated scf accuracy    <       7.60472493 Ry

[...]

     iteration # 10     ecut=    60.00 Ry     beta= 0.20
     Davidson diagonalization with overlap
     c_bands:  2 eigenvalues not converged
     ethr =  1.42E-05,  avg # of iterations =  9.0

[...]

     End of self-consistent calculation

          k = 0.0000 0.0000 0.0000 ( 83995 PWs)   bands (ev):

  -103.3091-103.3091-103.2959-103.2958-102.9347-102.9347 -68.4959 -68.4958
   -68.4954 -68.4954 -63.8779 -63.8778 -63.8720 -63.8718 -63.7227 -63.7226
   -63.6588 -63.6587 -63.6113 -63.6111 -63.5624 -63.5623 -63.4282 -63.4277
   -63.4140 -63.4139 -63.2104 -63.2102 -35.0063 -35.0060 -35.0051 -35.0046
   -34.9615 -34.9573 -34.9572 -34.9529 -34.9253 -34.9252 -34.9250 -34.9249
   -12.9993 -12.7145 -12.5877 -12.1223 -12.1096 -11.8735 -11.8141 -11.8072
   -11.6934 -11.4717  -6.1980  -5.9477  -5.7686  -5.7044  -5.4709  -5.4356
    -5.4316  -4.8060  -4.6679  -4.2369  -4.1750  -3.8446  -3.7860  -3.7787
    -3.6482  -3.6101  -3.6022  -3.5712  -3.1693  -3.1580  -3.0724  -2.9156
    -2.6998  -2.6844  -2.6659  -2.6161  -2.5479  -2.3064  -2.2992  -2.2661
    -2.2420  -2.1446  -2.0870  -1.9100  -1.8837  -1.8632  -1.8618  -1.8085
    -1.7933  -1.6786  -1.5544  -1.5302  -1.2903  -1.2824  -1.2074  -1.1560
    -1.1092  -1.0294  -0.8768  -0.8715  -0.8214  -0.8105  -0.7559  -0.5486
    -0.5315  -0.4759  -0.3950  -0.3272  -0.0316   0.1159   0.1338   0.2627
     0.8761   1.0910   1.2080   1.3150   1.3582   1.4579   1.5673   1.6147
     1.9474   2.1073   2.2186   2.4396   2.6305   2.7303   3.2329   3.4960
     3.5551   3.6016   3.6463   3.8214

[...]

          k =-0.5000 0.0000 0.0000 ( 84046 PWs)   bands (ev):

[...]

     the Fermi energy is     0.1212 ev

!    total energy              =   -9109.86470848 Ry
     total all-electron energy =     -9109.864708 Ry
     estimated scf accuracy    <          9.3E-09 Ry
     smearing contrib. (-TS)   =      -0.00018259 Ry
     internal energy E=F+TS    =   -9109.86452589 Ry

     The total energy is F=E-TS. E is the sum of the following terms:
     one-electron contribution =  -16686.86980997 Ry
     hartree contribution      =    8202.76735626 Ry
     xc contribution           =    -365.24998343 Ry
     ewald contribution        =    6007.23000074 Ry
     one-center paw contrib.   =   -6267.74208949 Ry

     convergence has been achieved in  26 iterations

[...]

     Forces acting on atoms (cartesian axes, Ry/au):

     atom    1 type  1   force =     0.00374184    0.01115528   -0.00587047
     atom    2 type  1   force =     0.00366833   -0.01116857    0.00585349
     atom    3 type  1   force =    -0.00374755    0.01115749   -0.00583769
     atom    4 type  1   force =    -0.00371110   -0.01116923    0.00584173
     atom    5 type  2   force =    -0.00295357    0.01518825   -0.00425596
     atom    6 type  2   force =    -0.00303696   -0.01516165    0.00421480
     atom    7 type  2   force =     0.00306229    0.01517838   -0.00426906
     atom    8 type  2   force =     0.00314881   -0.01514800    0.00423537
     atom    9 type  2   force =    -0.00000287    0.00656750   -0.00534541
     atom   10 type  2   force =    -0.00000091   -0.00655685    0.00537902
     atom   11 type  3   force =     0.00201573   -0.00936286   -0.01138955
     atom   12 type  3   force =     0.00202739    0.00935668    0.01139872
     atom   13 type  3   force =    -0.00140017    0.00548203   -0.00996566
     atom   14 type  3   force =    -0.00139528   -0.00549120    0.00997456
     atom   15 type  3   force =    -0.00199692   -0.00936344   -0.01139322
     atom   16 type  3   force =    -0.00200193    0.00935542    0.01140249
     atom   17 type  3   force =     0.00134761    0.00548031   -0.00996401
     atom   18 type  3   force =     0.00133972   -0.00548957    0.00997998
     atom   19 type  3   force =    -0.00005015    0.00679530   -0.00844876
     atom   20 type  3   force =    -0.00005432   -0.00680526    0.00845963

     Total force =     0.059254     Total SCF correction =     0.000385

     Computing stress (Cartesian axis) and pressure

     negative rho (up, down):  6.576E-02 0.000E+00
          total   stress  (Ry/bohr**3)                   (kbar)     P=        4.38
   0.00002600   0.00000000   0.00000000            3.83        0.00        0.00
   0.00000000   0.00006475  -0.00000763            0.00        9.53       -1.12
   0.00000000  -0.00000763  -0.00000144            0.00       -1.12       -0.21

     BFGS Geometry Optimization
     Energy error            =      0.0E+00 Ry
     Gradient error          =      1.5E-02 Ry/Bohr

     number of scf cycles    =   1
     number of bfgs steps    =   0

     energy             new  =   -9109.8647084775 Ry

     new trust radius        =       0.0160619351 bohr
     new conv_thr            =       0.0000000100 Ry

ATOMIC_POSITIONS (angstrom)
Ta              15.3938209216        0.9208266823       12.4407337122
Ta               6.5734917077        2.7388595265       12.5950938681
Ta               2.2631724966        0.9208278531       12.4405767909
Ta              11.0834895157        2.7388591775       12.5952477992
Ni              12.8628451972        0.9229608419       11.7594374397
Ni               4.0424930359        2.7367464820       13.2763743253
Ni               4.7940872186        0.9229556170       11.7591638661
Ni              13.6144268902        2.7367537060       13.2766422707
Ni               8.8283451457        0.9183989340       12.3653769289
Ni               0.0080764228        2.7412999467       12.6704562679
Te              14.2141090519        2.7398150664       10.5292296596
Te               5.3937947056        0.9198749062       14.5066040492
Te              10.5946921799        0.9178245288       10.5140602763
Te               1.7744117354        2.7418638609       14.5217732658
Te               3.4426319701        2.7398147638       10.5290045078
Te              12.2629301630        0.9198742394       14.5068264880
Te               7.0623315486        0.9178236212       10.5138985421
Te              15.8826108553        2.7418647257       14.5219483048
Te               0.0082723857        0.9185194811       10.8331481754
Te               8.8285292158        2.7411684933       14.2026544617

     Writing config-only to output data dir /ddn/data/physics/eamoujaes/2D-Ta2Ni3Te5/ELASTIC/C22/OUT/ta2ni3te5.save/ :
     XML data file
     NEW-OLD atomic charge density approx. for the potential

[...]

     iteration #  1     ecut=    60.00 Ry     beta= 0.20
     Davidson diagonalization with overlap
     c_bands:  1 eigenvalues not converged
     ethr =  1.00E-06,  avg # of iterations =  7.8

[...]

     Energy error            =      3.0E-03 Ry
     Gradient error          =      9.3E-03 Ry/Bohr

[...]

     energy             old  =   -9109.8647084775 Ry
     energy             new  =   -9109.8676663470 Ry

     CASE: energy            _new < energy            _old

[...]

     Threshold (ethr) on eigenvalues was too large:
     Diagonalizing with lowered threshold

     Davidson diagonalization with overlap
     ethr =  6.30E-09,  avg # of iterations =  5.0

[...]

     number of scf cycles    =   6
     number of bfgs steps    =   5

     energy             old  =   -9109.8708708333 Ry
     energy             new  =   -9109.8709489270 Ry

     CASE: energy            _new < energy            _old

     new trust radius        =       0.0063654983 bohr
     new conv_thr            =            1.0E-10 Ry

ATOMIC_POSITIONS (angstrom)
Ta              15.3975336761        0.9362040353       12.4311143825
Ta               6.5772182945        2.7234720340       12.6047205328
Ta               2.2594043301        0.9362066378       12.4309649256
Ta              11.0797124039        2.7234738149       12.6048634195
Ni              12.8601093202        0.9340895051       11.7489007102
Ni               4.0397882555        2.7256426324       13.2869206710
Ni               4.7968241493        0.9340925100       11.7486641307
Ni              13.6171554098        2.7256396924       13.2871790772
Ni               8.8284814227        0.9332516573       12.3538743441
Ni               0.0081853770        2.7264706783       12.6819295364
Te              14.2197077768        2.7291277147       10.5020845662
Te               5.3993943468        0.9305660715       14.5337297899
Te              10.5957580926        0.9290104742       10.5013737613
Te               1.7754312129        2.7306540101       14.5344582670
Te               3.4371222346        2.7291222986       10.5019018397
Te              12.2574446000        0.9305646211       14.5339255078
Te               7.0612235829        0.9290124972       10.5012622411
Te              15.8814958429        2.7306543100       14.5346103475
Te               0.0081536585        0.9343866518       10.8120358854
Te               8.8284183762        2.7252906073       14.2237370640

     Writing config-only to output data dir /ddn/data/physics/eamoujaes/2D-Ta2Ni3Te5/ELASTIC/C22/OUT/ta2ni3te5.save/ :
     XML data file
     NEW-OLD atomic charge density approx. for the potential

[...]

     Self-consistent Calculation

[...]

     Threshold (ethr) on eigenvalues was too large:
     Diagonalizing with lowered threshold

     Davidson diagonalization with overlap
     ethr =  1.84E-08,  avg # of iterations =  4.2

[...]

     total energy              =   -9109.87100115 Ry
     estimated scf accuracy    <          2.5E-10 Ry

     iteration # 20     ecut=    60.00 Ry     beta= 0.20
     Davidson diagonalization with overlap
     ethr =  1.03E-13,  avg # of iterations =  1.0

[...]

     End of self-consistent calculation

[...]

          k = 0.0000-2.4593 0.0000 ( 83812 PWs)   bands (ev):

[...]

          k =-0.5000-2.4593 0.0000 ( 83820 PWs)   bands (ev):

  -103.2746-103.2746-103.2745-103.2745-102.9188-102.9188 -68.5162 -68.5161
   -68.5161 -68.5161 -63.8441 -63.8441 -63.8438 -63.8438 -63.6659 -63.6659
   -63.6648 -63.6648 -63.5556 -63.5556 -63.5552 -63.5552 -63.4203 -63.4203
   -63.3993 -63.3993 -63.1828 -63.1827 -35.0267 -35.0267 -35.0259 -35.0259
   -35.0090 -35.0090 -35.0076 -35.0075 -34.9601 -34.9601 -34.9573 -34.9573
   -11.3776 -11.3776 -11.2016 -11.2015 -11.1795 -11.1795 -11.1047 -11.1047
   -10.9051 -10.9051  -6.2571  -6.2570  -6.0259  -6.0259  -5.4582  -5.4582
    -4.9973  -4.9972  -4.8154  -4.8154  -4.0273  -4.0272  -4.0253  -4.0252
    -3.7354  -3.7354  -3.5858  -3.5858  -3.4771  -3.4771  -3.3968  -3.3968
    -3.3860  -3.3860  -3.1090  -3.1090  -2.8759  -2.8758  -2.8151  -2.8150
    -2.5607  -2.5607  -2.3827  -2.3827  -2.2071  -2.2071  -2.1656  -2.1656
    -2.0409  -2.0409  -1.8682  -1.8682  -1.8395  -1.8395  -1.6789  -1.6789
    -1.4492  -1.4491  -1.3089  -1.3089  -1.2496  -1.2496  -1.1094  -1.1094
    -1.0570  -1.0569  -0.8585  -0.8584  -0.6528  -0.6527   0.4687   0.4688
     1.1303   1.1304   1.2807   1.2807   1.3723   1.3723   2.0196   2.0196
     2.1590   2.1590   2.4390   2.4390   2.6253   2.6254   2.9196   2.9196
     3.0457   3.0457   3.6455   3.6458

     the Fermi energy is     0.1178 ev

!    total energy              =   -9109.87100115 Ry
     total all-electron energy =     -9109.871001 Ry
     estimated scf accuracy    <          3.4E-11 Ry
     smearing contrib. (-TS)   =      -0.00033601 Ry
     internal energy E=F+TS    =   -9109.87066514 Ry

     The total energy is F=E-TS. E is the sum of the following terms:
     one-electron contribution =  -16619.49566432 Ry
     hartree contribution      =    8169.17842194 Ry
     xc contribution           =    -365.04997838 Ry
     ewald contribution        =    5973.22933414 Ry
     one-center paw contrib.   =   -6267.73277851 Ry

     convergence has been achieved in  20 iterations

     negative rho (up, down):  6.527E-02 0.000E+00

     Forces acting on atoms (cartesian axes, Ry/au):

     atom    1 type  1   force =    -0.00022379   -0.00031204   -0.00056551
     atom    2 type  1   force =    -0.00021046    0.00031226    0.00056849
     atom    3 type  1   force =     0.00021060   -0.00031288   -0.00056369
     atom    4 type  1   force =     0.00020661    0.00031158    0.00056284
     atom    5 type  2   force =     0.00086044   -0.00012469    0.00013442
     atom    6 type  2   force =     0.00086678    0.00012668   -0.00012899
     atom    7 type  2   force =    -0.00085324   -0.00012709    0.00013841
     atom    8 type  2   force =    -0.00086924    0.00012630   -0.00014282
     atom    9 type  2   force =    -0.00000173   -0.00028914    0.00085389
     atom   10 type  2   force =     0.00000784    0.00029223   -0.00085438
     atom   11 type  3   force =     0.00012262   -0.00031406   -0.00006775
     atom   12 type  3   force =     0.00012277    0.00031346    0.00007351
     atom   13 type  3   force =     0.00031064    0.00020834    0.00075604
     atom   14 type  3   force =     0.00031652   -0.00021101   -0.00075962
     atom   15 type  3   force =    -0.00012145   -0.00031197   -0.00007146
     atom   16 type  3   force =    -0.00012427    0.00031346    0.00007145
     atom   17 type  3   force =    -0.00030873    0.00020792    0.00075729
     atom   18 type  3   force =    -0.00030769   -0.00021121   -0.00076475
     atom   19 type  3   force =     0.00000068   -0.00011297    0.00048399
     atom   20 type  3   force =    -0.00000488    0.00011484   -0.00048135

     Total force =     0.003229     Total SCF correction =     0.000038

     Computing stress (Cartesian axis) and pressure

     negative rho (up, down):  6.527E-02 0.000E+00
          total   stress  (Ry/bohr**3)                   (kbar)     P=        0.16
   0.00001009  -0.00000000  -0.00000000            1.49       -0.00       -0.00
  -0.00000000   0.00003414   0.00000032           -0.00        5.02        0.05
  -0.00000000   0.00000032  -0.00004094           -0.00        0.05       -6.02

     Energy error            =      5.2E-05 Ry
     Gradient error          =      8.7E-04 Ry/Bohr

     bfgs converged in   7 scf cycles and   6 bfgs steps
     (criteria: energy <  1.0E-04 Ry, force <  1.0E-03 Ry/Bohr)

     End of BFGS Geometry Optimization

     Final energy             =   -9109.8710011474 Ry

     File /ddn/data/physics/eamoujaes/2D-Ta2Ni3Te5/ELASTIC/C22/OUT/ta2ni3te5.bfgs deleted, as requested
Begin final coordinates

ATOMIC_POSITIONS (angstrom)
Ta              15.3975336761        0.9362040353       12.4311143825
Ta               6.5772182945        2.7234720340       12.6047205328
Ta               2.2594043301        0.9362066378       12.4309649256
Ta              11.0797124039        2.7234738149       12.6048634195
Ni              12.8601093202        0.9340895051       11.7489007102
Ni               4.0397882555        2.7256426324       13.2869206710
Ni               4.7968241493        0.9340925100       11.7486641307
Ni              13.6171554098        2.7256396924       13.2871790772
Ni               8.8284814227        0.9332516573       12.3538743441
Ni               0.0081853770        2.7264706783       12.6819295364
Te              14.2197077768        2.7291277147       10.5020845662
Te               5.3993943468        0.9305660715       14.5337297899
Te              10.5957580926        0.9290104742       10.5013737613
Te               1.7754312129        2.7306540101       14.5344582670
Te               3.4371222346        2.7291222986       10.5019018397
Te              12.2574446000        0.9305646211       14.5339255078
Te               7.0612235829        0.9290124972       10.5012622411
Te              15.8814958429        2.7306543100       14.5346103475
Te               0.0081536585        0.9343866518       10.8120358854
Te               8.8284183762        2.7252906073       14.2237370640
End final coordinates

     Writing all to output data dir /ddn/data/physics/eamoujaes/2D-Ta2Ni3Te5/ELASTIC/C22/OUT/ta2ni3te5.save/ :
     XML data file, charge density, pseudopotentials, collected wavefunctions

     General routines
                                        0.78s GPU  (    2006 calls)
                                        0.02s GPU  (     149 calls)
                                      165.88s GPU  (   90034 calls)

     Parallel routines

   This run was terminated on:  14:13:55  28Jul2024

   JOB DONE.