     Program PWSCF v.7.3 starts on 28Jul2024 at 15:56:45

     Waiting for input...
     Reading input from standard input
Warning: card &CELL ignored
Warning: card CELL_DYNAMICS='BFGS' ignored
Warning: card PRESS=0.0 ignored
Warning: card CELL_DOFREE='2DXY' ignored
Warning: card / ignored

     Current dimensions of program PWSCF are:
     Max number of different atomic species (ntypx) = 10
     Max number of k-points (npk) =  40000
     Max angular momentum in pseudopotentials (lmaxx) =  4
read_pp_mesh; mismatch in mesh size, discarding the one in header
read_pp_mesh; mismatch in mesh size, discarding the one in header
read_pp_mesh; mismatch in mesh size, discarding the one in header

     Subspace diagonalization in iterative solution of the eigenvalue problem:
     a serial algorithm will be used

     Using Slab Decomposition

     bravais-lattice index     =            0
     lattice parameter (alat)  =      33.3357  a.u.
     unit-cell volume          =   11343.4638 (a.u.)^3
     number of atoms/cell      =           20
     number of atomic types    =            3
     number of electrons       =       220.00
     number of Kohn-Sham states=          132
     kinetic-energy cutoff     =      60.0000  Ry
     charge density cutoff     =     480.0000  Ry
     scf convergence threshold =      1.0E-08
     mixing beta               =       0.2000
     number of iterations used =            8  plain     mixing
     energy convergence thresh.=      1.0E-04
     force convergence thresh. =      1.0E-03
     Exchange-correlation= SLA PW PBX PBC
                           (   1   4   3   4   0   0   0)
     nstep                     =         2000

     celldm(1)=  33.335714  celldm(2)=   0.000000  celldm(3)=   0.000000
     celldm(4)=   0.000000  celldm(5)=   0.000000  celldm(6)=   0.000000

     crystal axes: (cart. coord. in units of alat)
               a(1) = (   1.000000   0.000000   0.000000 )
               a(2) = (   0.000000   0.215759   0.000000 )
               a(3) = (   0.000000   0.000000   1.419211 )

     reciprocal axes: (cart. coord. in units 2 pi/alat)
               b(1) = (  1.000000  0.000000  0.000000 )
               b(2) = (  0.000000  4.634797  0.000000 )
               b(3) = (  0.000000  0.000000  0.704617 )

     PseudoPot. # 1 for Ta read from file:
     /ddn/data/physics/eamoujaes/PSEUDO-CREATED/Ta.upf
     MD5 check sum: d865b2c2c09566b116f2b8decb2c153d
     Pseudo is Projector augmented-wave + core cor, Zval = 13.0
     Generated using ATOMPAW code
     Shape of augmentation charge: SINC**2
     Using radial grid of 2342 points,  6 beta functions with:
                l(1) =   0
                l(2) =   0
                l(3) =   1
                l(4) =   1
                l(5) =   2
                l(6) =   2
     Q(r) pseudized with 0 coefficients

     PseudoPot. # 2 for Ni read from file:
     /ddn/data/physics/eamoujaes/PSEUDO-CREATED/Ni.upf
     MD5 check sum: 85a2a5d9d38f4289a1cc30d5adb66a03
     Pseudo is Projector augmented-wave + core cor, Zval = 18.0
     Generated using ATOMPAW code
     Shape of augmentation charge: SINC**2
     Using radial grid of 2342 points,  6 beta functions with:
                l(1) =   0
                l(2) =   0
                l(3) =   1
                l(4) =   1
                l(5) =   2
                l(6) =   2
     Q(r) pseudized with 0 coefficients

     PseudoPot. # 3 for Te read from file:
     /ddn/data/physics/eamoujaes/PSEUDO-CREATED/Te.upf
     MD5 check sum: 8d958f193a7511a138982c2e72838810
     Pseudo is Projector augmented-wave + core cor, Zval =  6.0
     Generated using ATOMPAW code
     Shape of augmentation charge: SINC**2
     Using radial grid of 2342 points,  4 beta functions with:
                l(1) =   0
                l(2) =   0
                l(3) =   1
                l(4) =   1
     Q(r) pseudized with 0 coefficients

     atomic species   valence    mass     pseudopotential
     Ta               13.00   180.94790     Ta( 1.00)
     Ni               18.00    58.69340     Ni( 1.00)
     Te                6.00   127.60000     Te( 1.00)

     No symmetry found

   Cartesian axes

     site n.     atom                  positions (alat units)
         1        Ta     tau(   1) = (   0.8725286   0.0518649   0.7054131  )
         2        Ta     tau(   2) = (   0.3725263   0.1555948   0.7138118  )
         3        Ta     tau(   3) = (   0.1284065   0.0518649   0.7054032  )
         4        Ta     tau(   4) = (   0.6284092   0.1555948   0.7138208  )
         5        Ni     tau(   5) = (   0.7292542   0.0518649   0.6667436  )
         6        Ni     tau(   6) = (   0.2292509   0.1555948   0.7524812  )
         7        Ni     tau(   7) = (   0.2716741   0.0518649   0.6667284  )
         8        Ni     tau(   8) = (   0.7716766   0.1555948   0.7524957  )
         9        Ni     tau(   9) = (   0.5004590   0.0518649   0.7011256  )
        10        Ni     tau(  10) = (   0.0004579   0.1555948   0.7180981  )
        11        Te     tau(  11) = (   0.8057052   0.1555948   0.5972198  )
        12        Te     tau(  12) = (   0.3057012   0.0518649   0.8220046  )
        13        Te     tau(  13) = (   0.6006311   0.0518649   0.5963172  )
        14        Te     tau(  14) = (   0.1006292   0.1555948   0.8229072  )
        15        Te     tau(  15) = (   0.1952149   0.1555948   0.5972072  )
        16        Te     tau(  16) = (   0.6952178   0.0518649   0.8220171  )
        17        Te     tau(  17) = (   0.4003072   0.0518649   0.5963080  )
        18        Te     tau(  18) = (   0.9003091   0.1555948   0.8229170  )
        19        Te     tau(  19) = (   0.0004704   0.0518649   0.6143601  )
        20        Te     tau(  20) = (   0.5004710   0.1555948   0.8048626  )

     number of k points=    12  Gaussian smearing, width (Ry)=  0.0020
                       cart. coord. in units 2pi/alat
        k(    1) = (   0.0000000   0.0000000   0.0000000), wk =   0.1000000
        k(    2) = (   0.0000000   0.4634797   0.0000000), wk =   0.2000000
        k(    3) = (   0.0000000   0.9269594   0.0000000), wk =   0.2000000
        k(    4) = (   0.0000000   1.3904390   0.0000000), wk =   0.2000000
        k(    5) = (   0.0000000   1.8539187   0.0000000), wk =   0.2000000
        k(    6) = (   0.0000000  -2.3173984   0.0000000), wk =   0.1000000
        k(    7) = (  -0.5000000   0.0000000   0.0000000), wk =   0.1000000
        k(    8) = (  -0.5000000   0.4634797   0.0000000), wk =   0.2000000
        k(    9) = (  -0.5000000   0.9269594   0.0000000), wk =   0.2000000
        k(   10) = (  -0.5000000   1.3904390   0.0000000), wk =   0.2000000
        k(   11) = (  -0.5000000   1.8539187   0.0000000), wk =   0.2000000
        k(   12) = (  -0.5000000  -2.3173984   0.0000000), wk =   0.1000000

     Initial potential from superposition of free atoms

     starting charge     219.9927, renormalised to     220.0000

     negative rho (up, down):  5.263E-02 0.000E+00
     Starting wfcs are  260 randomized atomic wfcs
     Checking if some PAW data can be deallocated...

     Self-consistent Calculation

     iteration #  1     ecut=    60.00 Ry     beta= 0.20
     Davidson diagonalization with overlap
     ethr =  1.00E-02,  avg # of iterations =  2.8

     negative rho (up, down):  5.317E-02 0.000E+00

     total energy              =   -9107.97159965 Ry
     estimated scf accuracy    <       7.72033644 Ry

[...]

     iteration # 10     ecut=    60.00 Ry     beta= 0.20
     Davidson diagonalization with overlap
     c_bands:  1 eigenvalues not converged
     ethr =  9.63E-06,  avg # of iterations = 10.3

[...]

     End of self-consistent calculation

          k = 0.0000 0.0000 0.0000 ( 88895 PWs)   bands (ev):

  -103.4574-103.4574-103.4486-103.4486-103.0720-103.0720 -69.0244 -69.0243
   -69.0241 -69.0241 -64.0365 -64.0364 -64.0343 -64.0339 -63.8655 -63.8654
   -63.8155 -63.8153 -63.7343 -63.7342 -63.7035 -63.7034 -63.5776 -63.5775
   -63.5245 -63.5245 -63.3585 -63.3585 -35.4916 -35.4911 -35.4907 -35.4902
   -35.4471 -35.4471 -35.4470 -35.4469 -35.4153 -35.4120 -35.4114 -35.4079
   -12.9128 -12.6150 -12.5377 -12.1087 -12.0291 -11.8914 -11.8153 -11.7861
   -11.6703 -11.4932  -6.1750  -5.9206  -5.7208  -5.6802  -5.4359  -5.3947
    -5.3494  -4.7525  -4.6199  -4.2406  -4.1271  -3.9042  -3.8700  -3.8077
    -3.7195  -3.7136  -3.6750  -3.6273  -3.4528  -3.4490  -3.1078  -3.0667
    -2.9663  -2.8888  -2.7580  -2.7239  -2.7056  -2.6478  -2.4818  -2.4041
    -2.3373  -2.2584  -2.2519  -2.1312  -2.1300  -2.0539  -1.9574  -1.9557
    -1.8076  -1.7922  -1.7158  -1.6285  -1.5817  -1.5327  -1.5196  -1.4163
    -1.3673  -1.3643  -1.3082  -1.2602  -1.1509  -1.0222  -0.9431  -0.8737
    -0.8629  -0.6477  -0.5691  -0.5573  -0.4450  -0.3197  -0.1150  -0.1100
     0.3958   0.6601   0.6846   0.8836   1.0255   1.1265   1.2596   1.3459
     1.3883   1.5503   1.8005   1.9124   1.9231   2.3920   2.7260   2.7615
     2.8255   2.8472   3.0382   3.1464

[...]

          k =-0.5000 0.0000 0.0000 ( 88946 PWs)   bands (ev):

[...]

     the Fermi energy is    -0.2181 ev

!    total energy              =   -9109.86502757 Ry
     total all-electron energy =     -9109.865028 Ry
     estimated scf accuracy    <          7.5E-09 Ry
     smearing contrib. (-TS)   =      -0.00000000 Ry
     internal energy E=F+TS    =   -9109.86502757 Ry

     The total energy is F=E-TS. E is the sum of the following terms:
     one-electron contribution =  -15863.00118963 Ry
     hartree contribution      =    7788.77038410 Ry
     xc contribution           =    -364.43008816 Ry
     ewald contribution        =    5596.45075286 Ry
     one-center paw contrib.   =   -6267.65488675 Ry

     convergence has been achieved in  26 iterations

[...]

     Forces acting on atoms (cartesian axes, Ry/au):

     atom    1 type  1   force =    -0.00669877   -0.01835395    0.00905883
     atom    2 type  1   force =    -0.00672817    0.01832332   -0.00906325
     atom    3 type  1   force =     0.00670382   -0.01836045    0.00908865
     atom    4 type  1   force =     0.00672011    0.01834582   -0.00908389
     atom    5 type  2   force =     0.00388610   -0.02016983    0.00672314
     atom    6 type  2   force =     0.00382095    0.02020344   -0.00669219
     atom    7 type  2   force =    -0.00382520   -0.02017184    0.00671548
     atom    8 type  2   force =    -0.00379300    0.02021246   -0.00677893
     atom    9 type  2   force =     0.00002436   -0.00865612    0.00707541
     atom   10 type  2   force =     0.00001502    0.00865997   -0.00705856
     atom   11 type  3   force =    -0.00264427    0.01423294    0.01651686
     atom   12 type  3   force =    -0.00263517   -0.01423724   -0.01651565
     atom   13 type  3   force =     0.00288889   -0.00938600    0.01469250
     atom   14 type  3   force =     0.00288777    0.00937841   -0.01469276
     atom   15 type  3   force =     0.00267330    0.01423231    0.01651367
     atom   16 type  3   force =     0.00266777   -0.01423858   -0.01651022
     atom   17 type  3   force =    -0.00293291   -0.00938733    0.01469534
     atom   18 type  3   force =    -0.00293561    0.00938017   -0.01468908
     atom   19 type  3   force =    -0.00004616   -0.00859442    0.01027117
     atom   20 type  3   force =    -0.00004882    0.00858692   -0.01026652

     Total force =     0.086681     Total SCF correction =     0.000343

     Computing stress (Cartesian axis) and pressure

     negative rho (up, down):  6.510E-02 0.000E+00
          total   stress  (Ry/bohr**3)                   (kbar)     P=      -11.37
  -0.00003316   0.00000000  -0.00000000           -4.88        0.00       -0.00
   0.00000000  -0.00010991   0.00001000            0.00      -16.17        1.47
  -0.00000000   0.00001000  -0.00008889           -0.00        1.47      -13.08

     BFGS Geometry Optimization
     Energy error            =      0.0E+00 Ry
     Gradient error          =      2.0E-02 Ry/Bohr

     number of scf cycles    =   1
     number of bfgs steps    =   0

     energy             new  =   -9109.8650275688 Ry

     new trust radius        =       0.0219645572 bohr
     new conv_thr            =       0.0000000100 Ry

ATOMIC_POSITIONS (angstrom)
Ta              15.3882959888        0.9052110714       12.4486339601
Ta               6.5679901188        2.7544659657       12.5872002697
Ta               2.2687031221        0.9052076305       12.4484754653
Ta              11.0890094761        2.7544778698       12.5873494996
Ni              12.8664645924        0.9042501506       11.7652473293
Ni               4.0461220881        2.7554608799       13.2706025960
Ni               4.7904425130        0.9042490880       11.7649766352
Ni              13.6107534432        2.7554656548       13.2708137538
Ni               8.8283595553        0.9103429403       12.3719497437
Ni               0.0080848483        2.7493523373       12.6638745854
Te              14.2116430887        2.7523014296       10.5439970958
Te               5.3913273820        0.9073895416       14.4918323992
Te              10.5969618509        0.9099567090       10.5271088145
Te               1.7766782250        2.7497325216       14.5087198840
Te               3.4451033431        2.7523010963       10.5437722010
Te              12.2654012609        0.9073888306       14.4920557133
Te               7.0600663923        0.9099560051       10.5269477088
Te              15.8803484494        2.7497334533       14.5088940006
Te               0.0082744966        0.9103755957       10.8430543368
Te               8.8285321284        2.7493136827       14.1927450078

     Writing config-only to output data dir /ddn/data/physics/eamoujaes/2D-Ta2Ni3Te5/ELASTIC/C22/OUT/ta2ni3te5.save/ :
     XML data file
     NEW-OLD atomic charge density approx. for the potential

[...]

     Energy error            =      6.8E-03 Ry
     Gradient error          =      1.5E-02 Ry/Bohr

[...]

     energy             old  =   -9109.8650275688 Ry
     energy             new  =   -9109.8718310074 Ry

     CASE: energy            _new < energy            _old

     WARNING: bfgs curvature condition failed, Theta= 0.993
     new trust radius        =       0.0241610129 bohr
     new conv_thr            =       0.0000000015 Ry

[...]

     iteration #  1     ecut=    60.00 Ry     beta= 0.20
     Davidson diagonalization with overlap
     c_bands:  2 eigenvalues not converged
     ethr =  1.00E-06,  avg # of iterations =  9.2

[...]

     Threshold (ethr) on eigenvalues was too large:
     Diagonalizing with lowered threshold

     Davidson diagonalization with overlap
     ethr =  1.00E-08,  avg # of iterations =  4.9

[...]

     number of scf cycles    =   9
     number of bfgs steps    =   8

     energy             old  =   -9109.8845489695 Ry
     energy             new  =   -9109.8846147795 Ry

     CASE: energy            _new < energy            _old

     new trust radius        =       0.0016976224 bohr
     new conv_thr            =            1.0E-10 Ry

ATOMIC_POSITIONS (angstrom)
Ta              15.3798351156        0.8734392484       12.4716456943
Ta               6.5595528277        2.7862588400       12.5641901742
Ta               2.2770778330        0.8734425154       12.4714697599
Ta              11.0973576234        2.7862589752       12.5643680704
Ni              12.8747551491        0.8783446648       11.7838463651
Ni               4.0544635684        2.7813373052       13.2519807387
Ni               4.7823108472        0.8783464835       11.7836061677
Ni              13.6025981900        2.7813375977       13.2522073197
Ni               8.8284026721        0.8784788906       12.3961053012
Ni               0.0081392412        2.7812233095       12.6397103686
Te              14.1998743465        2.7767849255       10.5925056361
Te               5.3795821754        0.8829043543       14.4433177003
Te              10.5967700552        0.8860703050       10.5511597339
Te               1.7764945464        2.7736238806       14.4846777694
Te               3.4569419732        2.7767879364       10.5923546289
Te              12.2772253731        0.8829086802       14.4434665958
Te               7.0601842537        0.8860659100       10.5509716004
Te              15.8804568734        2.7736245093       14.4848663302
Te               0.0081476030        0.8762924871       10.8825741062
Te               8.8283920955        2.7834016352       14.1532269389

     Writing config-only to output data dir /ddn/data/physics/eamoujaes/2D-Ta2Ni3Te5/ELASTIC/C22/OUT/ta2ni3te5.save/ :
     XML data file
     NEW-OLD atomic charge density approx. for the potential

[...]

     Self-consistent Calculation

[...]

     Threshold (ethr) on eigenvalues was too large:
     Diagonalizing with lowered threshold

     Davidson diagonalization with overlap
     ethr =  1.14E-09,  avg # of iterations =  6.0

[...]

     total energy              =   -9109.88462849 Ry
     estimated scf accuracy    <          2.7E-10 Ry

     iteration # 13     ecut=    60.00 Ry     beta= 0.20
     Davidson diagonalization with overlap
     ethr =  1.21E-13,  avg # of iterations =  1.1

[...]

     End of self-consistent calculation

[...]

          k = 0.0000-2.3174 0.0000 ( 89158 PWs)   bands (ev):

[...]

          k =-0.5000-2.3174 0.0000 ( 89104 PWs)   bands (ev):

  -103.5111-103.5111-103.5110-103.5110-103.0917-103.0917 -68.9935 -68.9935
   -68.9934 -68.9934 -64.0977 -64.0977 -64.0974 -64.0973 -63.9156 -63.9156
   -63.9147 -63.9147 -63.7627 -63.7627 -63.7621 -63.7621 -63.5799 -63.5799
   -63.5361 -63.5361 -63.4078 -63.4078 -35.4800 -35.4800 -35.4794 -35.4794
   -35.4650 -35.4649 -35.4639 -35.4639 -35.3943 -35.3943 -35.3913 -35.3913
   -11.7513 -11.7513 -11.5851 -11.5851 -11.5743 -11.5743 -11.4560 -11.4560
   -11.2963 -11.2963  -6.4288  -6.4288  -6.1711  -6.1711  -5.5379  -5.5379
    -5.1058  -5.1057  -4.9918  -4.9918  -4.2224  -4.2224  -4.2106  -4.2106
    -3.9090  -3.9089  -3.7186  -3.7186  -3.6505  -3.6504  -3.5977  -3.5977
    -3.5158  -3.5158  -3.4527  -3.4527  -3.0749  -3.0749  -3.0084  -3.0084
    -2.9277  -2.9277  -2.6330  -2.6330  -2.5104  -2.5104  -2.3937  -2.3937
    -2.3255  -2.3255  -2.0364  -2.0364  -2.0180  -2.0180  -1.9344  -1.9344
    -1.6717  -1.6717  -1.5162  -1.5162  -1.4780  -1.4780  -1.3489  -1.3489
    -1.3173  -1.3172  -1.0691  -1.0691  -0.8386  -0.8386   0.1290   0.1290
     0.8298   0.8299   1.0531   1.0531   1.1192   1.1192   1.4420   1.4420
     1.7328   1.7328   1.8659   1.8659   1.9059   1.9059   2.6043   2.6043
     2.6680   2.6680   3.3266   3.3266

     the Fermi energy is    -0.2205 ev

!    total energy              =   -9109.88462849 Ry
     total all-electron energy =     -9109.884628 Ry
     estimated scf accuracy    <          8.8E-11 Ry
     smearing contrib. (-TS)   =      -0.00000000 Ry
     internal energy E=F+TS    =   -9109.88462849 Ry

     The total energy is F=E-TS. E is the sum of the following terms:
     one-electron contribution =  -15971.89724357 Ry
     hartree contribution      =    7843.01715452 Ry
     xc contribution           =    -364.72555884 Ry
     ewald contribution        =    5651.39439125 Ry
     one-center paw contrib.   =   -6267.67337185 Ry

     convergence has been achieved in  13 iterations

     negative rho (up, down):  6.569E-02 0.000E+00

     Forces acting on atoms (cartesian axes, Ry/au):

     atom    1 type  1   force =    -0.00033080    0.00017860    0.00066732
     atom    2 type  1   force =    -0.00033822   -0.00017909   -0.00066991
     atom    3 type  1   force =     0.00032979    0.00017844    0.00066734
     atom    4 type  1   force =     0.00033013   -0.00017865   -0.00066989
     atom    5 type  2   force =    -0.00047467   -0.00061748   -0.00025471
     atom    6 type  2   force =    -0.00048565    0.00061511    0.00025137
     atom    7 type  2   force =     0.00047512   -0.00061730   -0.00024467
     atom    8 type  2   force =     0.00049183    0.00061373    0.00024728
     atom    9 type  2   force =    -0.00000046    0.00038689   -0.00099812
     atom   10 type  2   force =     0.00000036   -0.00038521    0.00099720
     atom   11 type  3   force =     0.00007345    0.00066917    0.00006948
     atom   12 type  3   force =     0.00007695   -0.00066885   -0.00006820
     atom   13 type  3   force =    -0.00022006   -0.00048098   -0.00065223
     atom   14 type  3   force =    -0.00022022    0.00048283    0.00065208
     atom   15 type  3   force =    -0.00007408    0.00066815    0.00007123
     atom   16 type  3   force =    -0.00007545   -0.00066904   -0.00006913
     atom   17 type  3   force =     0.00022472   -0.00048041   -0.00065069
     atom   18 type  3   force =     0.00022133    0.00048225    0.00065190
     atom   19 type  3   force =    -0.00000236    0.00013806   -0.00025622
     atom   20 type  3   force =    -0.00000172   -0.00013621    0.00025858

     Total force =     0.003488     Total SCF correction =     0.000053

     Computing stress (Cartesian axis) and pressure

     negative rho (up, down):  6.569E-02 0.000E+00
          total   stress  (Ry/bohr**3)                   (kbar)     P=       -6.05
  -0.00001560   0.00000000   0.00000000           -2.29        0.00        0.00
   0.00000000  -0.00007158  -0.00000002            0.00      -10.53       -0.00
   0.00000000  -0.00000002  -0.00003629            0.00       -0.00       -5.34

     Energy error            =      1.4E-05 Ry
     Gradient error          =      1.0E-03 Ry/Bohr

     bfgs converged in  10 scf cycles and   9 bfgs steps
     (criteria: energy <  1.0E-04 Ry, force <  1.0E-03 Ry/Bohr)

     End of BFGS Geometry Optimization

     Final energy             =   -9109.8846284897 Ry

     File /ddn/data/physics/eamoujaes/2D-Ta2Ni3Te5/ELASTIC/C22/OUT/ta2ni3te5.bfgs deleted, as requested
Begin final coordinates

ATOMIC_POSITIONS (angstrom)
Ta              15.3798351156        0.8734392484       12.4716456943
Ta               6.5595528277        2.7862588400       12.5641901742
Ta               2.2770778330        0.8734425154       12.4714697599
Ta              11.0973576234        2.7862589752       12.5643680704
Ni              12.8747551491        0.8783446648       11.7838463651
Ni               4.0544635684        2.7813373052       13.2519807387
Ni               4.7823108472        0.8783464835       11.7836061677
Ni              13.6025981900        2.7813375977       13.2522073197
Ni               8.8284026721        0.8784788906       12.3961053012
Ni               0.0081392412        2.7812233095       12.6397103686
Te              14.1998743465        2.7767849255       10.5925056361
Te               5.3795821754        0.8829043543       14.4433177003
Te              10.5967700552        0.8860703050       10.5511597339
Te               1.7764945464        2.7736238806       14.4846777694
Te               3.4569419732        2.7767879364       10.5923546289
Te              12.2772253731        0.8829086802       14.4434665958
Te               7.0601842537        0.8860659100       10.5509716004
Te              15.8804568734        2.7736245093       14.4848663302
Te               0.0081476030        0.8762924871       10.8825741062
Te               8.8283920955        2.7834016352       14.1532269389
End final coordinates

     Writing all to output data dir /ddn/data/physics/eamoujaes/2D-Ta2Ni3Te5/ELASTIC/C22/OUT/ta2ni3te5.save/ :
     XML data file, charge density, pseudopotentials, collected wavefunctions

     General routines
                                        1.07s GPU  (    2488 calls)
                                        0.03s GPU  (     182 calls)
                                      208.98s GPU  (  113974 calls)

     Parallel routines

   This run was terminated on:  18: 3:53  28Jul2024

   JOB DONE.