     Program PWSCF v.7.3 starts on 28Jul2024 at 18: 4: 6

     Waiting for input...
     Reading input from standard input
Warning: card &CELL ignored
Warning: card CELL_DYNAMICS='BFGS' ignored
Warning: card PRESS=0.0 ignored
Warning: card CELL_DOFREE='2DXY' ignored
Warning: card / ignored

     Current dimensions of program PWSCF are:
     Max number of different atomic species (ntypx) = 10
     Max number of k-points (npk) =  40000
     Max angular momentum in pseudopotentials (lmaxx) =  4
read_pp_mesh; mismatch in mesh size, discarding the one in header
read_pp_mesh; mismatch in mesh size, discarding the one in header
read_pp_mesh; mismatch in mesh size, discarding the one in header

     Subspace diagonalization in iterative solution of the eigenvalue problem:
     a serial algorithm will be used

     Using Slab Decomposition

     bravais-lattice index     =            0
     lattice parameter (alat)  =      33.3357  a.u.
     unit-cell volume          =   11561.6245 (a.u.)^3
     number of atoms/cell      =           20
     number of atomic types    =            3
     number of electrons       =       220.00
     number of Kohn-Sham states=          132
     kinetic-energy cutoff     =      60.0000  Ry
     charge density cutoff     =     480.0000  Ry
     scf convergence threshold =      1.0E-08
     mixing beta               =       0.2000
     number of iterations used =            8  plain     mixing
     energy convergence thresh.=      1.0E-04
     force convergence thresh. =      1.0E-03
     Exchange-correlation= SLA PW PBX PBC
                           (   1   4   3   4   0   0   0)
     nstep                     =         2000

     celldm(1)=  33.335714  celldm(2)=   0.000000  celldm(3)=   0.000000
     celldm(4)=   0.000000  celldm(5)=   0.000000  celldm(6)=   0.000000

     crystal axes: (cart. coord. in units of alat)
               a(1) = (   1.000000   0.000000   0.000000 )
               a(2) = (   0.000000   0.219909   0.000000 )
               a(3) = (   0.000000   0.000000   1.419211 )

     reciprocal axes: (cart. coord. in units 2 pi/alat)
               b(1) = (  1.000000  0.000000  0.000000 )
               b(2) = (  0.000000  4.547341  0.000000 )
               b(3) = (  0.000000  0.000000  0.704617 )

     PseudoPot. # 1 for Ta read from file:
     /ddn/data/physics/eamoujaes/PSEUDO-CREATED/Ta.upf
     MD5 check sum: d865b2c2c09566b116f2b8decb2c153d
     Pseudo is Projector augmented-wave + core cor, Zval = 13.0
     Generated using ATOMPAW code
     Shape of augmentation charge: SINC**2
     Using radial grid of 2342 points,  6 beta functions with:
                l(1) =   0
                l(2) =   0
                l(3) =   1
                l(4) =   1
                l(5) =   2
                l(6) =   2
     Q(r) pseudized with 0 coefficients

     PseudoPot. # 2 for Ni read from file:
     /ddn/data/physics/eamoujaes/PSEUDO-CREATED/Ni.upf
     MD5 check sum: 85a2a5d9d38f4289a1cc30d5adb66a03
     Pseudo is Projector augmented-wave + core cor, Zval = 18.0
     Generated using ATOMPAW code
     Shape of augmentation charge: SINC**2
     Using radial grid of 2342 points,  6 beta functions with:
                l(1) =   0
                l(2) =   0
                l(3) =   1
                l(4) =   1
                l(5) =   2
                l(6) =   2
     Q(r) pseudized with 0 coefficients

     PseudoPot. # 3 for Te read from file:
     /ddn/data/physics/eamoujaes/PSEUDO-CREATED/Te.upf
     MD5 check sum: 8d958f193a7511a138982c2e72838810
     Pseudo is Projector augmented-wave + core cor, Zval =  6.0
     Generated using ATOMPAW code
     Shape of augmentation charge: SINC**2
     Using radial grid of 2342 points,  4 beta functions with:
                l(1) =   0
                l(2) =   0
                l(3) =   1
                l(4) =   1
     Q(r) pseudized with 0 coefficients

     atomic species   valence    mass     pseudopotential
     Ta               13.00   180.94790     Ta( 1.00)
     Ni               18.00    58.69340     Ni( 1.00)
     Te                6.00   127.60000     Te( 1.00)

     No symmetry found

   Cartesian axes

     site n.     atom                  positions (alat units)
         1        Ta     tau(   1) = (   0.8725286   0.0518649   0.7054131  )
         2        Ta     tau(   2) = (   0.3725263   0.1555948   0.7138118  )
         3        Ta     tau(   3) = (   0.1284065   0.0518649   0.7054032  )
         4        Ta     tau(   4) = (   0.6284092   0.1555948   0.7138208  )
         5        Ni     tau(   5) = (   0.7292542   0.0518649   0.6667436  )
         6        Ni     tau(   6) = (   0.2292509   0.1555948   0.7524812  )
         7        Ni     tau(   7) = (   0.2716741   0.0518649   0.6667284  )
         8        Ni     tau(   8) = (   0.7716766   0.1555948   0.7524957  )
         9        Ni     tau(   9) = (   0.5004590   0.0518649   0.7011256  )
        10        Ni     tau(  10) = (   0.0004579   0.1555948   0.7180981  )
        11        Te     tau(  11) = (   0.8057052   0.1555948   0.5972198  )
        12        Te     tau(  12) = (   0.3057012   0.0518649   0.8220046  )
        13        Te     tau(  13) = (   0.6006311   0.0518649   0.5963172  )
        14        Te     tau(  14) = (   0.1006292   0.1555948   0.8229072  )
        15        Te     tau(  15) = (   0.1952149   0.1555948   0.5972072  )
        16        Te     tau(  16) = (   0.6952178   0.0518649   0.8220171  )
        17        Te     tau(  17) = (   0.4003072   0.0518649   0.5963080  )
        18        Te     tau(  18) = (   0.9003091   0.1555948   0.8229170  )
        19        Te     tau(  19) = (   0.0004704   0.0518649   0.6143601  )
        20        Te     tau(  20) = (   0.5004710   0.1555948   0.8048626  )

     number of k points=    12  Gaussian smearing, width (Ry)=  0.0020
                       cart. coord. in units 2pi/alat
        k(    1) = (   0.0000000   0.0000000   0.0000000), wk =   0.1000000
        k(    2) = (   0.0000000   0.4547341   0.0000000), wk =   0.2000000
        k(    3) = (   0.0000000   0.9094682   0.0000000), wk =   0.2000000
        k(    4) = (   0.0000000   1.3642023   0.0000000), wk =   0.2000000
        k(    5) = (   0.0000000   1.8189364   0.0000000), wk =   0.2000000
        k(    6) = (   0.0000000  -2.2736705   0.0000000), wk =   0.1000000
        k(    7) = (  -0.5000000   0.0000000   0.0000000), wk =   0.1000000
        k(    8) = (  -0.5000000   0.4547341   0.0000000), wk =   0.2000000
        k(    9) = (  -0.5000000   0.9094682   0.0000000), wk =   0.2000000
        k(   10) = (  -0.5000000   1.3642023   0.0000000), wk =   0.2000000
        k(   11) = (  -0.5000000   1.8189364   0.0000000), wk =   0.2000000
        k(   12) = (  -0.5000000  -2.2736705   0.0000000), wk =   0.1000000

     Initial potential from superposition of free atoms

     starting charge     219.9927, renormalised to     220.0000

     negative rho (up, down):  5.302E-02 0.000E+00
     Starting wfcs are  260 randomized atomic wfcs
     Checking if some PAW data can be deallocated...

     Self-consistent Calculation

     iteration #  1     ecut=    60.00 Ry     beta= 0.20
     Davidson diagonalization with overlap
     ethr =  1.00E-02,  avg # of iterations =  2.8

     negative rho (up, down):  5.356E-02 0.000E+00

     total energy              =   -9107.91898098 Ry
     estimated scf accuracy    <       7.81247746 Ry

[...]

     iteration # 13     ecut=    60.00 Ry     beta= 0.20
     Davidson diagonalization with overlap
     c_bands:  1 eigenvalues not converged
     ethr =  9.54E-07,  avg # of iterations =  8.1

[...]

     End of self-consistent calculation

          k = 0.0000 0.0000 0.0000 ( 90505 PWs)   bands (ev):

  -103.5060-103.5059-103.4980-103.4979-103.1279-103.1279 -69.1784 -69.1784
   -69.1782 -69.1781 -64.0886 -64.0883 -64.0865 -64.0861 -63.9145 -63.9143
   -63.8676 -63.8673 -63.7752 -63.7750 -63.7486 -63.7484 -63.6312 -63.6311
   -63.5804 -63.5804 -63.4167 -63.4166 -35.6372 -35.6368 -35.6364 -35.6360
   -35.5977 -35.5976 -35.5974 -35.5973 -35.5514 -35.5483 -35.5475 -35.5444
   -12.8981 -12.5942 -12.5379 -12.1166 -12.0178 -11.9136 -11.8252 -11.7958
   -11.6840 -11.5096  -6.1727  -5.9172  -5.7135  -5.6733  -5.4330  -5.3949
    -5.3290  -4.7436  -4.6142  -4.2608  -4.1264  -3.9727  -3.9441  -3.8415
    -3.7328  -3.7100  -3.6789  -3.6496  -3.5488  -3.5316  -3.1885  -3.1260
    -3.0075  -2.9771  -2.8404  -2.7834  -2.7447  -2.6703  -2.5625  -2.4638
    -2.3891  -2.3877  -2.3214  -2.2030  -2.1606  -2.1238  -2.0968  -1.9923
    -1.8977  -1.8200  -1.8159  -1.7469  -1.6515  -1.6122  -1.5567  -1.4668
    -1.4497  -1.4230  -1.3964  -1.3101  -1.2004  -1.0938  -1.0472  -0.9610
    -0.8930  -0.7025  -0.6960  -0.6248  -0.4866  -0.4659  -0.2268  -0.2092
     0.2684   0.5099   0.5807   0.7749   0.9337   1.0071   1.0628   1.2309
     1.3205   1.3834   1.6178   1.7001   1.8359   2.2413   2.5003   2.5123
     2.6136   2.6185   2.7580   2.8942

[...]

          k =-0.5000 0.0000 0.0000 ( 90550 PWs)   bands (ev):

[...]

     the Fermi energy is    -0.3278 ev

!    total energy              =   -9109.83357692 Ry
     total all-electron energy =     -9109.833577 Ry
     estimated scf accuracy    <          5.2E-09 Ry
     smearing contrib. (-TS)   =      -0.00000000 Ry
     internal energy E=F+TS    =   -9109.83357692 Ry

     The total energy is F=E-TS. E is the sum of the following terms:
     one-electron contribution =  -15611.23071072 Ry
     hartree contribution      =    7662.23560237 Ry
     xc contribution           =    -364.20994693 Ry
     ewald contribution        =    5470.99799525 Ry
     one-center paw contrib.   =   -6267.62651688 Ry

     convergence has been achieved in  28 iterations

[...]

     Forces acting on atoms (cartesian axes, Ry/au):

     atom    1 type  1   force =    -0.00959625   -0.02363931    0.01244348
     atom    2 type  1   force =    -0.00968325    0.02362362   -0.01245114
     atom    3 type  1   force =     0.00962535   -0.02365266    0.01244887
     atom    4 type  1   force =     0.00964785    0.02363589   -0.01246155
     atom    5 type  2   force =     0.00482146   -0.02652242    0.00921028
     atom    6 type  2   force =     0.00471485    0.02654122   -0.00924872
     atom    7 type  2   force =    -0.00474910   -0.02651371    0.00920926
     atom    8 type  2   force =    -0.00464567    0.02654565   -0.00925504
     atom    9 type  2   force =    -0.00004875   -0.01058899    0.00885997
     atom   10 type  2   force =     0.00005829    0.01059159   -0.00886070
     atom   11 type  3   force =    -0.00333082    0.01866913    0.02239039
     atom   12 type  3   force =    -0.00331952   -0.01867251   -0.02237037
     atom   13 type  3   force =     0.00414733   -0.01266195    0.02002202
     atom   14 type  3   force =     0.00414744    0.01265739   -0.01999713
     atom   15 type  3   force =     0.00335187    0.01866895    0.02238663
     atom   16 type  3   force =     0.00334590   -0.01867308   -0.02236793
     atom   17 type  3   force =    -0.00418941   -0.01266192    0.02002097
     atom   18 type  3   force =    -0.00420147    0.01265745   -0.01999685
     atom   19 type  3   force =    -0.00005098   -0.01115182    0.01309450
     atom   20 type  3   force =    -0.00004511    0.01114748   -0.01307694

     Total force =     0.114889     Total SCF correction =     0.000374

     Computing stress (Cartesian axis) and pressure

     negative rho (up, down):  6.488E-02 0.000E+00
          total   stress  (Ry/bohr**3)                   (kbar)     P=      -14.73
  -0.00004391   0.00000000  -0.00000000           -6.46        0.00       -0.00
   0.00000000  -0.00015199   0.00001328            0.00      -22.36        1.95
  -0.00000000   0.00001328  -0.00010453           -0.00        1.95      -15.38

     BFGS Geometry Optimization
     Energy error            =      0.0E+00 Ry
     Gradient error          =      2.7E-02 Ry/Bohr

     number of scf cycles    =   1
     number of bfgs steps    =   0

     energy             new  =   -9109.8335769170 Ry

     new trust radius        =       0.0293421276 bohr
     new conv_thr            =       0.0000000100 Ry

ATOMIC_POSITIONS (angstrom)
Ta              15.3867627118        0.9024141825       12.4504250372
Ta               6.5664263570        2.7572707625       12.5854074762
Ta               2.2702491282        0.9024071154       12.4502536215
Ta              11.0905587694        2.7572772580       12.5855621187
Ni              12.8669595637        0.9008885022       11.7665634675
Ni               4.0465951147        2.7588146897       13.2692497420
Ni               4.7899536080        0.9008931151       11.7662962893
Ni              13.6103022329        2.7588170333       13.2695034544
Ni               8.8283208685        0.9093201137       12.3728940893
Ni               0.0081077502        2.7503745100       12.6629209316
Te              14.2112797831        2.7546489597       10.5471052365
Te               5.3909652419        0.9050424976       14.4887342150
Te              10.5976277893        0.9082231473       10.5299290710
Te               1.7773448146        2.7514676820       14.5059129321
Te               3.4454624243        2.7546488638       10.5468800347
Te              12.2657601096        0.9050421947       14.4889559465
Te               7.0594014801        0.9082231648       10.5297659138
Te              15.8796785857        2.7514677167       14.5060852490
Te               0.0082719430        0.9090222727       10.8445483744
Te               8.8285340873        2.7506686722       14.1912577990

     Writing config-only to output data dir /ddn/data/physics/eamoujaes/2D-Ta2Ni3Te5/ELASTIC/C22/OUT/ta2ni3te5.save/ :
     XML data file
     NEW-OLD atomic charge density approx. for the potential

[...]

     Energy error            =      1.2E-02 Ry
     Gradient error          =      2.1E-02 Ry/Bohr

[...]

     energy             old  =   -9109.8335769170 Ry
     energy             new  =   -9109.8457580148 Ry

     CASE: energy            _new < energy            _old

     WARNING: bfgs curvature condition failed, Theta= 0.950
     new trust radius        =       0.0322763404 bohr
     new conv_thr            =       0.0000000021 Ry

[...]

     iteration #  1     ecut=    60.00 Ry     beta= 0.20
     Davidson diagonalization with overlap
     c_bands:  1 eigenvalues not converged
     ethr =  1.00E-06,  avg # of iterations = 13.3

[...]

     Threshold (ethr) on eigenvalues was too large:
     Diagonalizing with lowered threshold

     Davidson diagonalization with overlap
     ethr =  7.39E-09,  avg # of iterations =  5.0

[...]

     number of scf cycles    =  23
     number of bfgs steps    =  22

     energy             old  =   -9109.8738930732 Ry
     energy             new  =   -9109.8739192744 Ry

     CASE: energy            _new < energy            _old

     new trust radius        =       0.0059573872 bohr
     new conv_thr            =            1.0E-10 Ry

ATOMIC_POSITIONS (angstrom)
Ta              15.3653762206        0.8664975849       12.5275909053
Ta               6.5451816115        2.7931159205       12.5082210144
Ta               2.2915409668        0.8665217930       12.5275529384
Ta              11.1117363239        2.7930975629       12.5082598886
Ni              12.8878695337        0.8611035551       11.7835606663
Ni               4.0676654203        2.7986543692       13.2522515550
Ni               4.7690971446        0.8611424302       11.7835136838
Ni              13.5892961311        2.7986140624       13.2523042663
Ni               8.8284328061        0.8590066166       12.3444691252
Ni               0.0081904498        2.8009369536       12.6913833898
Te              14.2197243780        2.8041916591       10.6323871396
Te               5.3995280803        0.8554440013       14.4034312867
Te              10.6157192397        0.8504273575       10.5193338210
Te               1.7955152644        2.8091471236       14.5164770992
Te               3.4371335349        2.8042161063       10.6323849446
Te              12.2573287267        0.8554205445       14.4034373908
Te               7.0411817120        0.8504343500       10.5192742170
Te              15.8613921371        2.8091273191       14.5165359290
Te               0.0081991795        0.8580625468       10.9614553590
Te               8.8284535023        2.8017705975       14.0744263796

     Writing config-only to output data dir /ddn/data/physics/eamoujaes/2D-Ta2Ni3Te5/ELASTIC/C22/OUT/ta2ni3te5.save/ :
     XML data file
     NEW-OLD atomic charge density approx. for the potential

[...]

     Self-consistent Calculation

[...]

     Threshold (ethr) on eigenvalues was too large:
     Diagonalizing with lowered threshold

     Davidson diagonalization with overlap
     ethr =  9.05E-09,  avg # of iterations =  5.0

[...]

     total energy              =   -9109.87393841 Ry
     estimated scf accuracy    <          1.1E-10 Ry

     iteration # 18     ecut=    60.00 Ry     beta= 0.20
     Davidson diagonalization with overlap
     ethr =  1.00E-13,  avg # of iterations =  1.1

[...]

     End of self-consistent calculation

[...]

          k = 0.0000-2.2737 0.0000 ( 90858 PWs)   bands (ev):

[...]

          k =-0.5000-2.2737 0.0000 ( 90888 PWs)   bands (ev):

  -103.5969-103.5969-103.5968-103.5968-103.1432-103.1431 -69.1408 -69.1408
   -69.1408 -69.1408 -64.1858 -64.1858 -64.1854 -64.1854 -64.0087 -64.0087
   -64.0074 -64.0074 -63.8389 -63.8389 -63.8385 -63.8385 -63.6250 -63.6250
   -63.5783 -63.5782 -63.4765 -63.4764 -35.6196 -35.6196 -35.6191 -35.6191
   -35.6052 -35.6052 -35.6041 -35.6041 -35.5311 -35.5311 -35.5284 -35.5284
   -11.8319 -11.8318 -11.6977 -11.6976 -11.6835 -11.6835 -11.5665 -11.5665
   -11.4034 -11.4034  -6.4871  -6.4870  -6.2171  -6.2171  -5.5717  -5.5717
    -5.1366  -5.1366  -5.0533  -5.0533  -4.2727  -4.2727  -4.2535  -4.2534
    -3.9792  -3.9792  -3.7570  -3.7570  -3.7069  -3.7069  -3.6348  -3.6348
    -3.5974  -3.5973  -3.5032  -3.5031  -3.1429  -3.1429  -3.0893  -3.0893
    -3.0055  -3.0055  -2.7188  -2.7188  -2.6148  -2.6148  -2.5075  -2.5075
    -2.3686  -2.3686  -2.1139  -2.1139  -2.0889  -2.0889  -1.9950  -1.9950
    -1.7458  -1.7458  -1.5989  -1.5988  -1.5391  -1.5391  -1.4272  -1.4271
    -1.3834  -1.3833  -1.1421  -1.1421  -0.8975  -0.8975   0.0145   0.0146
     0.6819   0.6819   0.9904   0.9905   1.0282   1.0282   1.2011   1.2011
     1.4585   1.4585   1.7772   1.7773   1.8047   1.8048   2.5455   2.5455
     2.5519   2.5520   3.1473   3.1473

     the Fermi energy is    -0.3194 ev

!    total energy              =   -9109.87393842 Ry
     total all-electron energy =     -9109.873938 Ry
     estimated scf accuracy    <          6.7E-12 Ry
     smearing contrib. (-TS)   =      -0.00000000 Ry
     internal energy E=F+TS    =   -9109.87393842 Ry

     The total energy is F=E-TS. E is the sum of the following terms:
     one-electron contribution =  -15752.91304684 Ry
     hartree contribution      =    7732.76175961 Ry
     xc contribution           =    -364.59982267 Ry
     ewald contribution        =    5542.52816879 Ry
     one-center paw contrib.   =   -6267.65099731 Ry

     convergence has been achieved in  18 iterations

     negative rho (up, down):  6.560E-02 0.000E+00

     Forces acting on atoms (cartesian axes, Ry/au):

     atom    1 type  1   force =    -0.00001263   -0.00048514    0.00055871
     atom    2 type  1   force =    -0.00001874    0.00049010   -0.00055554
     atom    3 type  1   force =     0.00000654   -0.00048378    0.00056107
     atom    4 type  1   force =     0.00001335    0.00048960   -0.00055859
     atom    5 type  2   force =    -0.00044825    0.00010167   -0.00001702
     atom    6 type  2   force =    -0.00044778   -0.00010182    0.00001663
     atom    7 type  2   force =     0.00045152    0.00009807   -0.00001916
     atom    8 type  2   force =     0.00045238   -0.00009942    0.00001835
     atom    9 type  2   force =     0.00000164    0.00037086    0.00015710
     atom   10 type  2   force =     0.00000137   -0.00037407   -0.00015488
     atom   11 type  3   force =    -0.00001359   -0.00034925    0.00061159
     atom   12 type  3   force =    -0.00001654    0.00035073   -0.00061343
     atom   13 type  3   force =    -0.00018327    0.00053716    0.00034775
     atom   14 type  3   force =    -0.00018684   -0.00054161   -0.00034550
     atom   15 type  3   force =     0.00001623   -0.00034808    0.00060558
     atom   16 type  3   force =     0.00001947    0.00034972   -0.00060871
     atom   17 type  3   force =     0.00018554    0.00053869    0.00035162
     atom   18 type  3   force =     0.00018834   -0.00054189   -0.00035100
     atom   19 type  3   force =    -0.00000374    0.00073936    0.00057248
     atom   20 type  3   force =    -0.00000501   -0.00074088   -0.00057705

     Total force =     0.002983     Total SCF correction =     0.000016

     Computing stress (Cartesian axis) and pressure

     negative rho (up, down):  6.560E-02 0.000E+00
          total   stress  (Ry/bohr**3)                   (kbar)     P=       -8.19
  -0.00002420   0.00000000  -0.00000000           -3.56        0.00       -0.00
   0.00000000  -0.00010465  -0.00000073            0.00      -15.39       -0.11
  -0.00000000  -0.00000073  -0.00003817           -0.00       -0.11       -5.61

     Energy error            =      1.9E-05 Ry
     Gradient error          =      7.4E-04 Ry/Bohr

     bfgs converged in  24 scf cycles and  23 bfgs steps
     (criteria: energy <  1.0E-04 Ry, force <  1.0E-03 Ry/Bohr)

     End of BFGS Geometry Optimization

     Final energy             =   -9109.8739384150 Ry

     File /ddn/data/physics/eamoujaes/2D-Ta2Ni3Te5/ELASTIC/C22/OUT/ta2ni3te5.bfgs deleted, as requested
Begin final coordinates

ATOMIC_POSITIONS (angstrom)
Ta              15.3653762206        0.8664975849       12.5275909053
Ta               6.5451816115        2.7931159205       12.5082210144
Ta               2.2915409668        0.8665217930       12.5275529384
Ta              11.1117363239        2.7930975629       12.5082598886
Ni              12.8878695337        0.8611035551       11.7835606663
Ni               4.0676654203        2.7986543692       13.2522515550
Ni               4.7690971446        0.8611424302       11.7835136838
Ni              13.5892961311        2.7986140624       13.2523042663
Ni               8.8284328061        0.8590066166       12.3444691252
Ni               0.0081904498        2.8009369536       12.6913833898
Te              14.2197243780        2.8041916591       10.6323871396
Te               5.3995280803        0.8554440013       14.4034312867
Te              10.6157192397        0.8504273575       10.5193338210
Te               1.7955152644        2.8091471236       14.5164770992
Te               3.4371335349        2.8042161063       10.6323849446
Te              12.2573287267        0.8554205445       14.4034373908
Te               7.0411817120        0.8504343500       10.5192742170
Te              15.8613921371        2.8091273191       14.5165359290
Te               0.0081991795        0.8580625468       10.9614553590
Te               8.8284535023        2.8017705975       14.0744263796
End final coordinates

     Writing all to output data dir /ddn/data/physics/eamoujaes/2D-Ta2Ni3Te5/ELASTIC/C22/OUT/ta2ni3te5.save/ :
     XML data file, charge density, pseudopotentials, collected wavefunctions

     General routines
                                        2.63s GPU  (    6253 calls)
                                        0.07s GPU  (     462 calls)
                                      585.96s GPU  (  287324 calls)

     Parallel routines

   This run was terminated on:  23:33:10  28Jul2024

   JOB DONE.