     Program PWSCF v.7.3 starts on 28Jul2024 at 23:33:24

     Waiting for input...
     Reading input from standard input
Warning: card &CELL ignored
Warning: card CELL_DYNAMICS='BFGS' ignored
Warning: card PRESS=0.0 ignored
Warning: card CELL_DOFREE='2DXY' ignored
Warning: card / ignored

     Current dimensions of program PWSCF are:
     Max number of different atomic species (ntypx) = 10
     Max number of k-points (npk) =  40000
     Max angular momentum in pseudopotentials (lmaxx) =  4
read_pp_mesh; mismatch in mesh size, discarding the one in header
read_pp_mesh; mismatch in mesh size, discarding the one in header
read_pp_mesh; mismatch in mesh size, discarding the one in header

     Subspace diagonalization in iterative solution of the eigenvalue problem:
     a serial algorithm will be used

     Using Slab Decomposition

     bravais-lattice index     =            0
     lattice parameter (alat)  =      33.3357  a.u.
     unit-cell volume          =   11779.7852 (a.u.)^3
     number of atoms/cell      =           20
     number of atomic types    =            3
     number of electrons       =       220.00
     number of Kohn-Sham states=          132
     kinetic-energy cutoff     =      60.0000  Ry
     charge density cutoff     =     480.0000  Ry
     scf convergence threshold =      1.0E-08
     mixing beta               =       0.2000
     number of iterations used =            8  plain     mixing
     energy convergence thresh.=      1.0E-04
     force convergence thresh. =      1.0E-03
     Exchange-correlation= SLA PW PBX PBC
                           (   1   4   3   4   0   0   0)
     nstep                     =         2000

     celldm(1)=  33.335714  celldm(2)=   0.000000  celldm(3)=   0.000000
     celldm(4)=   0.000000  celldm(5)=   0.000000  celldm(6)=   0.000000

     crystal axes: (cart. coord. in units of alat)
               a(1) = (   1.000000   0.000000   0.000000 )
               a(2) = (   0.000000   0.224058   0.000000 )
               a(3) = (   0.000000   0.000000   1.419211 )

     reciprocal axes: (cart. coord. in units 2 pi/alat)
               b(1) = (  1.000000  0.000000  0.000000 )
               b(2) = (  0.000000  4.463125  0.000000 )
               b(3) = (  0.000000  0.000000  0.704617 )

     PseudoPot. # 1 for Ta read from file:
     /ddn/data/physics/eamoujaes/PSEUDO-CREATED/Ta.upf
     MD5 check sum: d865b2c2c09566b116f2b8decb2c153d
     Pseudo is Projector augmented-wave + core cor, Zval = 13.0
     Generated using ATOMPAW code
     Shape of augmentation charge: SINC**2
     Using radial grid of 2342 points,  6 beta functions with:
                l(1) =   0
                l(2) =   0
                l(3) =   1
                l(4) =   1
                l(5) =   2
                l(6) =   2
     Q(r) pseudized with 0 coefficients

     PseudoPot. # 2 for Ni read from file:
     /ddn/data/physics/eamoujaes/PSEUDO-CREATED/Ni.upf
     MD5 check sum: 85a2a5d9d38f4289a1cc30d5adb66a03
     Pseudo is Projector augmented-wave + core cor, Zval = 18.0
     Generated using ATOMPAW code
     Shape of augmentation charge: SINC**2
     Using radial grid of 2342 points,  6 beta functions with:
                l(1) =   0
                l(2) =   0
                l(3) =   1
                l(4) =   1
                l(5) =   2
                l(6) =   2
     Q(r) pseudized with 0 coefficients

     PseudoPot. # 3 for Te read from file:
     /ddn/data/physics/eamoujaes/PSEUDO-CREATED/Te.upf
     MD5 check sum: 8d958f193a7511a138982c2e72838810
     Pseudo is Projector augmented-wave + core cor, Zval =  6.0
     Generated using ATOMPAW code
     Shape of augmentation charge: SINC**2
     Using radial grid of 2342 points,  4 beta functions with:
                l(1) =   0
                l(2) =   0
                l(3) =   1
                l(4) =   1
     Q(r) pseudized with 0 coefficients

     atomic species   valence    mass     pseudopotential
     Ta               13.00   180.94790     Ta( 1.00)
     Ni               18.00    58.69340     Ni( 1.00)
     Te                6.00   127.60000     Te( 1.00)

     No symmetry found

   Cartesian axes

     site n.     atom                  positions (alat units)
         1        Ta     tau(   1) = (   0.8725286   0.0518649   0.7054131  )
         2        Ta     tau(   2) = (   0.3725263   0.1555948   0.7138118  )
         3        Ta     tau(   3) = (   0.1284065   0.0518649   0.7054032  )
         4        Ta     tau(   4) = (   0.6284092   0.1555948   0.7138208  )
         5        Ni     tau(   5) = (   0.7292542   0.0518649   0.6667436  )
         6        Ni     tau(   6) = (   0.2292509   0.1555948   0.7524812  )
         7        Ni     tau(   7) = (   0.2716741   0.0518649   0.6667284  )
         8        Ni     tau(   8) = (   0.7716766   0.1555948   0.7524957  )
         9        Ni     tau(   9) = (   0.5004590   0.0518649   0.7011256  )
        10        Ni     tau(  10) = (   0.0004579   0.1555948   0.7180981  )
        11        Te     tau(  11) = (   0.8057052   0.1555948   0.5972198  )
        12        Te     tau(  12) = (   0.3057012   0.0518649   0.8220046  )
        13        Te     tau(  13) = (   0.6006311   0.0518649   0.5963172  )
        14        Te     tau(  14) = (   0.1006292   0.1555948   0.8229072  )
        15        Te     tau(  15) = (   0.1952149   0.1555948   0.5972072  )
        16        Te     tau(  16) = (   0.6952178   0.0518649   0.8220171  )
        17        Te     tau(  17) = (   0.4003072   0.0518649   0.5963080  )
        18        Te     tau(  18) = (   0.9003091   0.1555948   0.8229170  )
        19        Te     tau(  19) = (   0.0004704   0.0518649   0.6143601  )
        20        Te     tau(  20) = (   0.5004710   0.1555948   0.8048626  )

     number of k points=    12  Gaussian smearing, width (Ry)=  0.0020
                       cart. coord. in units 2pi/alat
        k(    1) = (   0.0000000   0.0000000   0.0000000), wk =   0.1000000
        k(    2) = (   0.0000000   0.4463125   0.0000000), wk =   0.2000000
        k(    3) = (   0.0000000   0.8926249   0.0000000), wk =   0.2000000
        k(    4) = (   0.0000000   1.3389374   0.0000000), wk =   0.2000000
        k(    5) = (   0.0000000   1.7852498   0.0000000), wk =   0.2000000
        k(    6) = (   0.0000000  -2.2315623   0.0000000), wk =   0.1000000
        k(    7) = (  -0.5000000   0.0000000   0.0000000), wk =   0.1000000
        k(    8) = (  -0.5000000   0.4463125   0.0000000), wk =   0.2000000
        k(    9) = (  -0.5000000   0.8926249   0.0000000), wk =   0.2000000
        k(   10) = (  -0.5000000   1.3389374   0.0000000), wk =   0.2000000
        k(   11) = (  -0.5000000   1.7852498   0.0000000), wk =   0.2000000
        k(   12) = (  -0.5000000  -2.2315623   0.0000000), wk =   0.1000000

     Initial potential from superposition of free atoms

     starting charge     219.9927, renormalised to     220.0000

     negative rho (up, down):  5.334E-02 0.000E+00
     Starting wfcs are  260 randomized atomic wfcs
     Checking if some PAW data can be deallocated...

     Self-consistent Calculation

     iteration #  1     ecut=    60.00 Ry     beta= 0.20
     Davidson diagonalization with overlap
     ethr =  1.00E-02,  avg # of iterations =  2.8

     negative rho (up, down):  5.392E-02 0.000E+00

     total energy              =   -9107.85531296 Ry
     estimated scf accuracy    <       7.91854169 Ry

[...]

     End of self-consistent calculation

          k = 0.0000 0.0000 0.0000 ( 92397 PWs)   bands (ev):

  -103.5549-103.5549-103.5475-103.5475-103.1834-103.1834 -69.3236 -69.3236
   -69.3233 -69.3233 -64.1418 -64.1416 -64.1399 -64.1395 -63.9640 -63.9640
   -63.9191 -63.9191 -63.8174 -63.8174 -63.7944 -63.7943 -63.6853 -63.6851
   -63.6395 -63.6394 -63.4713 -63.4712 -35.7779 -35.7776 -35.7773 -35.7770
   -35.7378 -35.7377 -35.7373 -35.7373 -35.6807 -35.6779 -35.6770 -35.6741
   -12.8885 -12.5789 -12.5426 -12.1296 -12.0128 -11.9398 -11.8391 -11.8102
   -11.7021 -11.5305  -6.1729  -5.9168  -5.7090  -5.6678  -5.4340  -5.3992
    -5.3115  -4.7384  -4.6132  -4.2861  -4.1365  -4.0396  -4.0177  -3.8879
    -3.7596  -3.7043  -3.6772  -3.6759  -3.6409  -3.5997  -3.3007  -3.1488
    -3.0697  -3.0663  -2.9336  -2.8120  -2.7838  -2.6934  -2.6414  -2.5551
    -2.4953  -2.4529  -2.4267  -2.2884  -2.2634  -2.2456  -2.1329  -2.0325
    -1.9629  -1.9607  -1.8301  -1.7902  -1.7025  -1.6815  -1.6031  -1.5485
    -1.5179  -1.4831  -1.4419  -1.3611  -1.2531  -1.1772  -1.1424  -1.0383
    -0.9228  -0.7985  -0.7574  -0.7195  -0.5716  -0.5326  -0.3542  -0.3134
     0.1827   0.3625   0.4965   0.6670   0.8447   0.8806   0.8848   1.1062
     1.2258   1.2497   1.4502   1.5044   1.7538   2.0630   2.2463   2.2645
     2.4204   2.4501   2.4878   2.7228

[...]

          k =-0.5000 0.0000 0.0000 ( 92454 PWs)   bands (ev):

[...]

     the Fermi energy is    -0.4377 ev

!    total energy              =   -9109.79149274 Ry
     total all-electron energy =     -9109.791493 Ry
     estimated scf accuracy    <          5.0E-09 Ry
     smearing contrib. (-TS)   =      -0.00000001 Ry
     internal energy E=F+TS    =   -9109.79149273 Ry

     The total energy is F=E-TS. E is the sum of the following terms:
     one-electron contribution =  -15369.90447755 Ry
     hartree contribution      =    7540.94251327 Ry
     xc contribution           =    -364.01241988 Ry
     ewald contribution        =    5350.78322997 Ry
     one-center paw contrib.   =   -6267.60033854 Ry

     convergence has been achieved in  27 iterations

[...]

     Forces acting on atoms (cartesian axes, Ry/au):

     atom    1 type  1   force =    -0.01223063   -0.02652186    0.01505596
     atom    2 type  1   force =    -0.01224813    0.02650223   -0.01505499
     atom    3 type  1   force =     0.01222873   -0.02653092    0.01507879
     atom    4 type  1   force =     0.01226024    0.02651638   -0.01508815
     atom    5 type  2   force =     0.00524439   -0.03095264    0.01137960
     atom    6 type  2   force =     0.00520772    0.03097732   -0.01138758
     atom    7 type  2   force =    -0.00517479   -0.03094829    0.01139100
     atom    8 type  2   force =    -0.00516595    0.03098140   -0.01144943
     atom    9 type  2   force =    -0.00002060   -0.01138189    0.00970857
     atom   10 type  2   force =     0.00003171    0.01138344   -0.00969028
     atom   11 type  3   force =    -0.00360487    0.02150604    0.02709368
     atom   12 type  3   force =    -0.00359871   -0.02150988   -0.02708412
     atom   13 type  3   force =     0.00520043   -0.01502913    0.02432418
     atom   14 type  3   force =     0.00520079    0.01502355   -0.02431048
     atom   15 type  3   force =     0.00363074    0.02150525    0.02709044
     atom   16 type  3   force =     0.00362709   -0.02151056   -0.02708018
     atom   17 type  3   force =    -0.00524403   -0.01502967    0.02432350
     atom   18 type  3   force =    -0.00525045    0.01502429   -0.02430865
     atom   19 type  3   force =    -0.00004701   -0.01278324    0.01490918
     atom   20 type  3   force =    -0.00004666    0.01277819   -0.01490105

     Total force =     0.134972     Total SCF correction =     0.000223

     Computing stress (Cartesian axis) and pressure

     negative rho (up, down):  6.469E-02 0.000E+00
          total   stress  (Ry/bohr**3)                   (kbar)     P=      -17.46
  -0.00005319   0.00000000  -0.00000000           -7.83        0.00       -0.00
   0.00000000  -0.00018622   0.00001564            0.00      -27.39        2.30
  -0.00000000   0.00001564  -0.00011662           -0.00        2.30      -17.15

     BFGS Geometry Optimization
     Energy error            =      0.0E+00 Ry
     Gradient error          =      3.1E-02 Ry/Bohr

     number of scf cycles    =   1
     number of bfgs steps    =   0

     energy             new  =   -9109.7914927356 Ry

     new trust radius        =       0.0347789053 bohr
     new conv_thr            =       0.0000000100 Ry

ATOMIC_POSITIONS (angstrom)
Ta              15.3853686567        0.9008888018       12.4518075041
Ta               6.5650690800        2.7587940597       12.5840295777
Ta               2.2716267783        0.9008840045       12.4516453151
Ta              11.0919411837        2.7588015425       12.5841721836
Ni              12.8671833717        0.8985441301       11.7677114207
Ni               4.0468559339        2.7611621709       13.2681179016
Ni               4.7897283410        0.8985464331       11.7674508150
Ni              13.6100269128        2.7611643318       13.2683422330
Ni               8.8283357647        0.9089005266       12.3733431506
Ni               0.0080936804        2.7507935369       12.6624819343
Te              14.2111347613        2.7561501855       10.5495941100
Te               5.3908175013        0.9035410286       14.4862398077
Te              10.5981850669        0.9069704922       10.5322056763
Te               1.7779022214        2.7527198031       14.5036304063
Te               3.4456099974        2.7561497687       10.5493691860
Te              12.2659089086        0.9035406643       14.4864623319
Te               7.0588434000        0.9069702072       10.5320427157
Te              15.8791234858        2.7527201916       14.5038035440
Te               0.0082740470        0.9081589666       10.8455086644
Te               8.8285332705        2.7515316085       14.1902925220

     Writing config-only to output data dir /ddn/data/physics/eamoujaes/2D-Ta2Ni3Te5/ELASTIC/C22/OUT/ta2ni3te5.save/ :
     XML data file
     NEW-OLD atomic charge density approx. for the potential

[...]

     Energy error            =      1.7E-02 Ry
     Gradient error          =      2.6E-02 Ry/Bohr

[...]

     energy             old  =   -9109.7914927356 Ry
     energy             new  =   -9109.8085659698 Ry

     CASE: energy            _new < energy            _old

     WARNING: bfgs curvature condition failed, Theta= 0.918
     new trust radius        =       0.0382567958 bohr
     new conv_thr            =       0.0000000026 Ry

[...]

     iteration #  1     ecut=    60.00 Ry     beta= 0.20
     Davidson diagonalization with overlap
     c_bands:  1 eigenvalues not converged
     ethr =  1.00E-06,  avg # of iterations =  9.3

[...]

     iteration #  1     ecut=    60.00 Ry     beta= 0.20
     Davidson diagonalization with overlap
     c_bands:  1 eigenvalues not converged
     c_bands:  2 eigenvalues not converged
     ethr =  1.00E-06,  avg # of iterations = 14.9

[...]

     Threshold (ethr) on eigenvalues was too large:
     Diagonalizing with lowered threshold

     Davidson diagonalization with overlap
     ethr =  4.86E-08,  avg # of iterations =  4.0

[...]

     number of scf cycles    =  26
     number of bfgs steps    =  25

     energy             old  =   -9109.8559555666 Ry
     energy             new  =   -9109.8559856114 Ry

     CASE: energy            _new < energy            _old

     new trust radius        =       0.0090510221 bohr
     new conv_thr            =            1.0E-10 Ry

ATOMIC_POSITIONS (angstrom)
Ta              15.3539406719        0.8489713881       12.5619055182
Ta               6.5337140722        2.8107246622       12.4739249065
Ta               2.3030001604        0.8490109610       12.5620469280
Ta              11.1232416476        2.8106836547       12.4737743013
Ni              12.8974544799        0.8425507751       11.7874662630
Ni               4.0772178340        2.8171453685       13.2483408695
Ni               4.7594176612        0.8425749435       11.7876585285
Ni              13.5796449732        2.8171161536       13.2481460157
Ni               8.8284509561        0.8407085022       12.3280907217
Ni               0.0081785247        2.8189856911       12.7077362108
Te              14.2266941863        2.8240290896       10.6622216645
Te               5.4064301510        0.8356646938       14.3736133726
Te              10.6254862344        0.8309946899       10.5135399029
Te               1.8052614446        2.8286944441       14.5222707877
Te               3.4302602657        2.8240650252       10.6623778556
Te              12.2505130953        0.8356282622       14.3734546428
Te               7.0313191414        0.8310302909       10.5136301028
Te              15.8515538994        2.8286597253       14.5221811460
Te               0.0082672423        0.8384531831       11.0103149487
Te               8.8285157219        2.8212409499       14.0255563130

     Writing config-only to output data dir /ddn/data/physics/eamoujaes/2D-Ta2Ni3Te5/ELASTIC/C22/OUT/ta2ni3te5.save/ :
     XML data file
     NEW-OLD atomic charge density approx. for the potential

[...]

     Self-consistent Calculation

[...]

     Threshold (ethr) on eigenvalues was too large:
     Diagonalizing with lowered threshold

     Davidson diagonalization with overlap
     ethr =  2.19E-08,  avg # of iterations =  4.0

[...]

     total energy              =   -9109.85601210 Ry
     estimated scf accuracy    <          1.0E-10 Ry

     iteration # 20     ecut=    60.00 Ry     beta= 0.20
     Davidson diagonalization with overlap
     ethr =  1.00E-13,  avg # of iterations =  1.0

[...]

     End of self-consistent calculation

[...]

          k = 0.0000-2.2316 0.0000 ( 92530 PWs)   bands (ev):

[...]

          k =-0.5000-2.2316 0.0000 ( 92472 PWs)   bands (ev):

  -103.6782-103.6782-103.6781-103.6781-103.2009-103.2009 -69.2820 -69.2820
   -69.2820 -69.2820 -64.2707 -64.2707 -64.2703 -64.2703 -64.0951 -64.0951
   -64.0939 -64.0938 -63.9113 -63.9113 -63.9108 -63.9108 -63.6756 -63.6756
   -63.6268 -63.6268 -63.5519 -63.5519 -35.7539 -35.7539 -35.7534 -35.7534
   -35.7402 -35.7402 -35.7392 -35.7392 -35.6623 -35.6623 -35.6598 -35.6597
   -11.9255 -11.9255 -11.8014 -11.8014 -11.7806 -11.7806 -11.6691 -11.6691
   -11.5065 -11.5065  -6.5440  -6.5440  -6.2653  -6.2653  -5.6101  -5.6101
    -5.1790  -5.1790  -5.1186  -5.1185  -4.3267  -4.3267  -4.2962  -4.2962
    -4.0470  -4.0469  -3.7954  -3.7954  -3.7720  -3.7720  -3.6896  -3.6896
    -3.6592  -3.6592  -3.5383  -3.5383  -3.2131  -3.2131  -3.1883  -3.1883
    -3.0531  -3.0531  -2.8041  -2.8041  -2.6997  -2.6997  -2.6140  -2.6140
    -2.4250  -2.4250  -2.2048  -2.2047  -2.1367  -2.1367  -2.0436  -2.0436
    -1.8117  -1.8117  -1.6863  -1.6862  -1.5962  -1.5962  -1.5080  -1.5080
    -1.4493  -1.4493  -1.2137  -1.2137  -0.9605  -0.9605  -0.0984  -0.0984
     0.5368   0.5369   0.8600   0.8600   0.9259   0.9259   1.0387   1.0387
     1.2044   1.2044   1.6882   1.6882   1.7164   1.7165   2.4324   2.4324
     2.4823   2.4823   2.9793   2.9794

     the Fermi energy is    -0.4144 ev

!    total energy              =   -9109.85601210 Ry
     total all-electron energy =     -9109.856012 Ry
     estimated scf accuracy    <          2.9E-11 Ry
     smearing contrib. (-TS)   =      -0.00000000 Ry
     internal energy E=F+TS    =   -9109.85601210 Ry

     The total energy is F=E-TS. E is the sum of the following terms:
     one-electron contribution =  -15545.47033383 Ry
     hartree contribution      =    7628.29914947 Ry
     xc contribution           =    -364.48506750 Ry
     ewald contribution        =    5439.43064528 Ry
     one-center paw contrib.   =   -6267.63040551 Ry

     convergence has been achieved in  20 iterations

     negative rho (up, down):  6.540E-02 0.000E+00

     Forces acting on atoms (cartesian axes, Ry/au):

     atom    1 type  1   force =    -0.00007001   -0.00042052    0.00041813
     atom    2 type  1   force =    -0.00007347    0.00041956   -0.00041981
     atom    3 type  1   force =     0.00007035   -0.00042270    0.00042173
     atom    4 type  1   force =     0.00006557    0.00042211   -0.00042171
     atom    5 type  2   force =    -0.00040697    0.00047967    0.00018277
     atom    6 type  2   force =    -0.00040314   -0.00048022   -0.00018454
     atom    7 type  2   force =     0.00040419    0.00048288    0.00017277
     atom    8 type  2   force =     0.00040494   -0.00048172   -0.00017111
     atom    9 type  2   force =    -0.00000102    0.00053645    0.00013036
     atom   10 type  2   force =     0.00000536   -0.00053684   -0.00012515
     atom   11 type  3   force =    -0.00006057   -0.00060860    0.00056946
     atom   12 type  3   force =    -0.00005788    0.00060889   -0.00057392
     atom   13 type  3   force =    -0.00029669    0.00060096    0.00029476
     atom   14 type  3   force =    -0.00030378   -0.00060031   -0.00029001
     atom   15 type  3   force =     0.00006103   -0.00061042    0.00056815
     atom   16 type  3   force =     0.00006021    0.00060993   -0.00057120
     atom   17 type  3   force =     0.00030261    0.00060161    0.00030086
     atom   18 type  3   force =     0.00030265   -0.00060083   -0.00029180
     atom   19 type  3   force =    -0.00000316    0.00097840    0.00068412
     atom   20 type  3   force =    -0.00000021   -0.00097830   -0.00069386

     Total force =     0.003402     Total SCF correction =     0.000022

     Computing stress (Cartesian axis) and pressure

     negative rho (up, down):  6.540E-02 0.000E+00
          total   stress  (Ry/bohr**3)                   (kbar)     P=       -9.96
  -0.00003171   0.00000000  -0.00000000           -4.67        0.00       -0.00
   0.00000000  -0.00013384  -0.00000079            0.00      -19.69       -0.12
  -0.00000000  -0.00000079  -0.00003747           -0.00       -0.12       -5.51

     Energy error            =      2.6E-05 Ry
     Gradient error          =      9.8E-04 Ry/Bohr

     bfgs converged in  27 scf cycles and  26 bfgs steps
     (criteria: energy <  1.0E-04 Ry, force <  1.0E-03 Ry/Bohr)

     End of BFGS Geometry Optimization

     Final energy             =   -9109.8560120961 Ry

     File /ddn/data/physics/eamoujaes/2D-Ta2Ni3Te5/ELASTIC/C22/OUT/ta2ni3te5.bfgs deleted, as requested
Begin final coordinates

ATOMIC_POSITIONS (angstrom)
Ta              15.3539406719        0.8489713881       12.5619055182
Ta               6.5337140722        2.8107246622       12.4739249065
Ta               2.3030001604        0.8490109610       12.5620469280
Ta              11.1232416476        2.8106836547       12.4737743013
Ni              12.8974544799        0.8425507751       11.7874662630
Ni               4.0772178340        2.8171453685       13.2483408695
Ni               4.7594176612        0.8425749435       11.7876585285
Ni              13.5796449732        2.8171161536       13.2481460157
Ni               8.8284509561        0.8407085022       12.3280907217
Ni               0.0081785247        2.8189856911       12.7077362108
Te              14.2266941863        2.8240290896       10.6622216645
Te               5.4064301510        0.8356646938       14.3736133726
Te              10.6254862344        0.8309946899       10.5135399029
Te               1.8052614446        2.8286944441       14.5222707877
Te               3.4302602657        2.8240650252       10.6623778556
Te              12.2505130953        0.8356282622       14.3734546428
Te               7.0313191414        0.8310302909       10.5136301028
Te              15.8515538994        2.8286597253       14.5221811460
Te               0.0082672423        0.8384531831       11.0103149487
Te               8.8285157219        2.8212409499       14.0255563130
End final coordinates

     Writing all to output data dir /ddn/data/physics/eamoujaes/2D-Ta2Ni3Te5/ELASTIC/C22/OUT/ta2ni3te5.save/ :
     XML data file, charge density, pseudopotentials, collected wavefunctions

     General routines
                                        2.95s GPU  (    7059 calls)
                                        0.08s GPU  (     522 calls)
                                      663.52s GPU  (  325922 calls)

     Parallel routines

   This run was terminated on:   5:49: 2  29Jul2024

   JOB DONE.