 vasp.6.4.2 20Jul23 (build Nov 14 2023 13:24:25) complex

 executed on             LinuxIFC date 2024.06.22  13:59:19

 INCAR:
   ENCUT = 303.223
   ALGO = Normal
   NELM = 200
   NELMIN = 6
   NELMDL = -12
   EDIFF = 1.0E-6
   AMIX = 0.1
   BMIX = 0.0001
   NBANDS = 280
   PREC = Accurate
   IVDW = 0
   ISPIN = 1
   ADDGRID = .TRUE.
   LASPH = .TRUE.
   LSORBIT = .TRUE.
   LREAL = Auto
   NSW = 0
   EDIFFG = -0.010
   IBRION = 2
   ISIF = 3
   POTIM = 0.5
   STRESSTYPE = 2
   ISMEAR = 0
   SIGMA = 0.01
   LORBIT = 10
   NEDOS = 6001
   NWRITE = 1
   LWAVE = .FALSE.
   LCHARG = .FALSE.
   ICHARG = 11
   NCORE = 4
   LPLANE = .TRUE.

 POTCAR:    PAW_PBE Ta 17Jan2003
 POTCAR:    PAW_PBE Ni 02Aug2007
 POTCAR:    PAW_PBE Te 08Apr2002
|           W    W    AA    RRRRR   N    N  II  N    N   GGGG   !!!           |
|           W    W   A  A   R    R  NN   N  II  NN   N  G    G  !!!           |
|           W    W  A    A  R    R  N N  N  II  N N  N  G       !!!           |
|           W WW W  AAAAAA  RRRRR   N  N N  II  N  N N  G  GGG   !            |
|           WW  WW  A    A  R   R   N   NN  II  N   NN  G    G                |
|           W    W  A    A  R    R  N    N  II  N    N   GGGG   !!!           |
|     You use a magnetic or noncollinear calculation, but did not specify     |
|     the initial magnetic moment with the MAGMOM tag. Note that a            |
|     default of 1 will be used for all atoms. This ferromagnetic setup       |
|     may break the symmetry of the crystal, in particular it may rule        |
|     out finding an antiferromagnetic solution. Thence, we recommend         |
|     setting the initial magnetic moment manually or verifying carefully     |
|     that this magnetic setup is desired.                                    |

 POTCAR:    PAW_PBE Ta 17Jan2003

 POTCAR:    PAW_PBE Ni 02Aug2007

 POTCAR:    PAW_PBE Te 08Apr2002

 Optimization of the real space projectors (new method)

 maximal supplied QI-value         = 12.85
 optimisation between [QCUT,QGAM] = [  8.87, 17.73] = [ 22.01, 88.06] Ry
 Optimized for a Real-space Cutoff    1.95 Angstroem

   l    n(q)    QCUT    max X(q) W(low)/X(q) W(high)/X(q)  e(spline)
   2      9     8.867    62.315    0.12E-03    0.33E-04    0.12E-05
   2      9     8.867    52.185    0.13E-03    0.33E-04    0.12E-05
   0     10     8.867   103.837    0.13E-04    0.28E-04    0.12E-06
   0     10     8.867    59.728    0.12E-04    0.25E-04    0.11E-06
   1     10     8.867    13.958    0.44E-04    0.17E-05    0.15E-06
   1     10     8.867     8.441    0.31E-04    0.26E-05    0.11E-06
 Optimization of the real space projectors (new method)

[...]

   l    n(q)    QCUT    max X(q) W(low)/X(q) W(high)/X(q)  e(spline)
   2      7     8.776    60.317    0.16E-03    0.44E-03    0.23E-06
   2      7     8.776    55.921    0.17E-03    0.44E-03    0.23E-06
   0      8     8.776    51.690    0.22E-03    0.25E-03    0.51E-07
   0      8     8.776    30.015    0.20E-03    0.23E-03    0.47E-07
   1      8     8.776    18.849    0.17E-03    0.19E-03    0.10E-06
   1      8     8.776    14.624    0.15E-03    0.15E-03    0.88E-07
 Optimization of the real space projectors (new method)

 maximal supplied QI-value         = 16.25
 optimisation between [QCUT,QGAM] = [  8.78, 17.71] = [ 21.57, 87.87] Ry
 Optimized for a Real-space Cutoff    1.49 Angstroem

   l    n(q)    QCUT    max X(q) W(low)/X(q) W(high)/X(q)  e(spline)
   0      8     8.776   224.858    0.15E-03    0.19E-04    0.75E-07
   0      8     8.776   205.313    0.15E-03    0.20E-04    0.76E-07
   1      7     8.776   119.695    0.23E-03    0.47E-03    0.95E-07
   1      7     8.776    84.282    0.23E-03    0.46E-03    0.93E-07
   2      7     8.776     5.599    0.87E-04    0.38E-04    0.37E-07
  PAW_PBE Ta 17Jan2003                  :
  PAW_PBE Ni 02Aug2007                  :
  PAW_PBE Te 08Apr2002                  :

 POSCAR: Ta8 Ni12 Te20
  positions in direct lattice
  velocities in cartesian coordinates
 exchange correlation table for  LEXCH =        8
   RHO(1)=    0.500       N(1)  =     2000
   RHO(2)=  100.500       N(2)  =     4000

 ion  position               nearest neighbor table
   1  0.872  0.250  0.497-   5 2.63   8 2.70   8 2.70  19 2.76  18 2.80  18 2.80  11 2.89  11 2.89
                            10 2.96  10 2.96
   2  0.372  0.750  0.503-   6 2.63   7 2.70   7 2.70  20 2.76  17 2.80  17 2.80  12 2.89  12 2.89
                             9 2.96   9 2.96
   3  0.129  0.250  0.497-   7 2.63   6 2.70   6 2.70  19 2.76  14 2.80  14 2.80  15 2.89  15 2.89
                            10 2.96  10 2.96
   4  0.629  0.750  0.503-   8 2.63   5 2.70   5 2.70  20 2.76  13 2.80  13 2.80  16 2.89  16 2.89
                             9 2.96   9 2.96
   5  0.729  0.250  0.470-   8 2.50   8 2.50  11 2.58  11 2.58  13 2.59   1 2.63   4 2.70   4 2.70
                            16 2.74
   6  0.229  0.750  0.530-   7 2.50   7 2.50  12 2.58  12 2.58  14 2.59   2 2.63   3 2.70   3 2.70
                            15 2.74
   7  0.272  0.250  0.470-   6 2.50   6 2.50  15 2.58  15 2.58  17 2.59   3 2.63   2 2.70   2 2.70
                            12 2.74
   8  0.772  0.750  0.530-   5 2.50   5 2.50  16 2.58  16 2.58  18 2.59   4 2.63   1 2.70   1 2.70
                            11 2.74
   9  0.500  0.250  0.494-  17 2.54  13 2.54  20 2.56  20 2.56   2 2.96   2 2.96   4 2.96   4 2.96

  10  0.000  0.750  0.506-  18 2.54  14 2.54  19 2.56  19 2.56   1 2.96   1 2.96   3 2.96   3 2.96

  11  0.804  0.750  0.423-   5 2.58   5 2.58   8 2.74   1 2.89   1 2.89
  12  0.304  0.250  0.577-   6 2.58   6 2.58   7 2.74   2 2.89   2 2.89
  13  0.601  0.250  0.422-   9 2.54   5 2.59   4 2.80   4 2.80  17 3.57
  14  0.101  0.750  0.578-  10 2.54   6 2.59   3 2.80   3 2.80  18 3.57
  15  0.197  0.750  0.423-   7 2.58   7 2.58   6 2.74   3 2.89   3 2.89
  16  0.697  0.250  0.577-   8 2.58   8 2.58   5 2.74   4 2.89   4 2.89
  17  0.400  0.250  0.422-   9 2.54   7 2.59   2 2.80   2 2.80  13 3.57
  18  0.900  0.750  0.578-  10 2.54   8 2.59   1 2.80   1 2.80  14 3.57
  19  0.000  0.250  0.435-  10 2.56  10 2.56   1 2.76   3 2.76
  20  0.500  0.750  0.565-   9 2.56   9 2.56   2 2.76   4 2.76

  LATTYP: Found a simple orthorhombic cell.
 ALAT       =     3.7173663731
 B/A-ratio  =     4.7893243875
 C/A-ratio  =     6.7347578740

  Lattice vectors:

 A1 = (   0.0000000000,  -3.7173663731,   0.0000000000)
 A2 = (  17.8036734280,   0.0000000000,   0.0000000000)
 A3 = (   0.0000000000,   0.0000000000,  25.0355624519)

Analysis of symmetry for initial positions (statically):
 Subroutine PRICEL returns:
 Original cell was already a primitive cell.

 Routine SETGRP: Setting up the symmetry group for a
 simple orthorhombic supercell.

 Subroutine GETGRP returns: Found  2 space group operations
 (whereof  1 operations were pure point group operations)
 out of a pool of  8 trial point group operations.

The static configuration has the point symmetry C_1 .
 The point group associated with its full space group is C_1h.

Analysis of symmetry for dynamics (positions and initial velocities):
 Subroutine PRICEL returns:
 Original cell was already a primitive cell.

[...]

The dynamic configuration has the point symmetry C_1 .
 The point group associated with its full space group is C_1h.

Analysis of structural, dynamic, and magnetic symmetry:
 Subroutine PRICEL returns:
 Original cell was already a primitive cell.

 Routine SETGRP: Setting up the symmetry group for a
 simple orthorhombic supercell.

 Subroutine GETGRP returns: Found  1 space group operations
 (whereof  1 operations were pure point group operations)
 out of a pool of  8 trial point group operations.

The overall configuration has the point symmetry C_1 .

 Subroutine INISYM returns: Found  1 space group operations
 (whereof  1 operations are pure point group operations),
 and found     1 'primitive' translations

                                     Primitive cell

  volume of cell :    1656.9230

  direct lattice vectors                    reciprocal lattice vectors
    17.803673428  0.000000000  0.000000000     0.056168184  0.000000000  0.000000000
     0.000000000  3.717366373  0.000000000     0.000000000  0.269007652 -0.000000000
     0.000000000  0.000000000 25.035562452     0.000000000  0.000000000  0.039943181

  length of vectors
    17.803673428  3.717366373 25.035562452     0.056168184  0.269007652  0.039943181

  position of ions in fractional coordinates (direct lattice)
     0.871673196  0.249999970  0.496965903
     0.371656673  0.749999881  0.503047488
     0.129144954  0.249999970  0.496950766
     0.629189849  0.749999881  0.503056190
     0.728969198  0.249999970  0.470428878
     0.228940622  0.749999881  0.529607779
     0.271823733  0.249999970  0.470414353
     0.771838868  0.749999881  0.529614355
     0.500292249  0.249999970  0.494117339
     0.000316075  0.749999881  0.505863449
     0.803873609  0.749999881  0.422630908
     0.303845329  0.249999970  0.577394114
     0.600616500  0.249999970  0.421900216
     0.100570225  0.749999881  0.578112336
     0.196977383  0.749999881  0.422614921
     0.696977929  0.249999970  0.577406064
     0.400112091  0.249999970  0.421842527
     0.900135743  0.749999881  0.578159661
     0.000401553  0.249999970  0.435303419
     0.500401798  0.749999881  0.564661933

  ion indices of the primitive-cell ions
   primitive index   ion index
                 1           1
                 2           2
                 3           3
                 4           4
                 5           5
                 6           6
                 7           7
                 8           8
                 9           9
                10          10
                11          11
                12          12
                13          13
                14          14
                15          15
                16          16
                17          17
                18          18
                19          19
                20          20

 KPOINTS: kpoints along symmetry lines

Interpolating k-points between supplied coordinates.

 Line segments in fractional coordinates (reciprocal lattice):
    0.000000  0.000000  0.000000  ...  0.500000  0.000000  0.000000
    0.500000  0.000000  0.000000  ...  0.500000  0.500000  0.000000
    0.500000  0.500000  0.000000  ...  0.000000  0.500000  0.000000
    0.000000  0.500000  0.000000  ...  0.000000  0.000000  0.000000

 Generated    30 points on each line segment, for a total of    120 k-points:

 Following reciprocal coordinates:
            Coordinates               Weight
  0.000000  0.000000  0.000000      0.008333
  0.017241  0.000000  0.000000      0.008333
  0.034483  0.000000  0.000000      0.008333
  0.051724  0.000000  0.000000      0.008333
  0.068966  0.000000  0.000000      0.008333
  0.086207  0.000000  0.000000      0.008333
  0.103448  0.000000  0.000000      0.008333
  0.120690  0.000000  0.000000      0.008333
  0.137931  0.000000  0.000000      0.008333
  0.155172  0.000000  0.000000      0.008333
  0.172414  0.000000  0.000000      0.008333
  0.189655  0.000000  0.000000      0.008333
[...]
  PAW double counting   =     14554.18155611   -14285.03903732
  entropy T*S    EENTRO =        -0.00000000
  eigenvalues    EBANDS =      -719.76327700
  atomic energy  EATOM  =      9221.11089956
  Solvation  Ediel_sol  =         0.00000000
  free energy    TOTEN  =      -120.34889874 eV

  energy without entropy =     -120.34889874  energy(sigma->0) =     -120.34889874

 average (electrostatic) potential at core
  the test charge radii are     1.2538  0.9791  1.1897
  (the norm of the test charge is              1.0000)
       1 -43.5266       2 -43.5269       3 -43.5263       4 -43.5266       5 -92.6561
       6 -92.6545       7 -92.6558       8 -92.6560       9 -92.2902      10 -92.2903
      11 -95.8606      12 -95.8596      13 -95.7233      14 -95.7224      15 -95.8609
      16 -95.8609      17 -95.7241      18 -95.7234      19 -95.6791      20 -95.6782

 E-fermi :  -1.0876     XC(G=0):  -3.3055     alpha+bet : -3.4031

 Fermi energy:        -1.0876401236

 k-point     1 :       0.0000    0.0000    0.0000
  band No.  band energies     occupation
      1     -13.9885      1.00000
      2     -13.9885      1.00000
      3     -13.7286      1.00000
      4     -13.7285      1.00000
      5     -13.5716      1.00000
      6     -13.5716      1.00000
      7     -13.1030      1.00000
      8     -13.1030      1.00000
      9     -13.0946      1.00000
     10     -13.0945      1.00000
     11     -12.8637      1.00000
     12     -12.8636      1.00000
     13     -12.8512      1.00000
     14     -12.8512      1.00000
     15     -12.8375      1.00000
     16     -12.8375      1.00000
     17     -12.7089      1.00000
     18     -12.7089      1.00000
     19     -12.5072      1.00000
     20     -12.5071      1.00000
     21      -7.1562      1.00000
     22      -7.1562      1.00000
     23      -6.9379      1.00000
     24      -6.9378      1.00000
     25      -6.8086      1.00000
     26      -6.8085      1.00000
     27      -6.7556      1.00000
     28      -6.7556      1.00000
     29      -6.4905      1.00000
     30      -6.4905      1.00000
     31      -6.4504      1.00000
     32      -6.4503      1.00000
     33      -6.3886      1.00000
     34      -6.3886      1.00000
     35      -5.8740      1.00000
     36      -5.8740      1.00000
     37      -5.6686      1.00000
     38      -5.6686      1.00000
     39      -5.3007      1.00000
     40      -5.3007      1.00000
     41      -5.2496      1.00000
     42      -5.2495      1.00000
     43      -4.9772      1.00000
     44      -4.9772      1.00000
     45      -4.8988      1.00000
     46      -4.8988      1.00000
     47      -4.8368      1.00000
     48      -4.8367      1.00000
     49      -4.8234      1.00000
     50      -4.8234      1.00000
     51      -4.7972      1.00000
     52      -4.7971      1.00000
     53      -4.7473      1.00000
     54      -4.7473      1.00000
     55      -4.6429      1.00000
     56      -4.6429      1.00000
     57      -4.4733      1.00000
     58      -4.4732      1.00000
     59      -4.4662      1.00000
     60      -4.4661      1.00000
[...]
    266       5.9457      0.00000
    267       5.9876      0.00000
    268       5.9877      0.00000
    269       6.0221      0.00000
    270       6.0221      0.00000
    271       6.1769      0.00000
    272       6.1769      0.00000
    273       6.2183      0.00000
    274       6.2184      0.00000
    275       6.3192      0.00000
    276       6.3193      0.00000
    277       6.4060      0.00000
    278       6.4061      0.00000
    279       6.4733      0.00000
    280       6.4752      0.00000

[...]

 k-point   120 :       0.0000    0.0000    0.0000
  band No.  band energies     occupation
      1     -13.9885      1.00000
      2     -13.9885      1.00000
      3     -13.7286      1.00000
      4     -13.7285      1.00000
      5     -13.5716      1.00000
      6     -13.5716      1.00000
      7     -13.1030      1.00000
      8     -13.1030      1.00000
      9     -13.0946      1.00000
     10     -13.0945      1.00000
     11     -12.8637      1.00000
     12     -12.8636      1.00000
     13     -12.8512      1.00000
     14     -12.8512      1.00000
     15     -12.8375      1.00000
     16     -12.8375      1.00000
     17     -12.7089      1.00000
     18     -12.7089      1.00000
     19     -12.5072      1.00000
     20     -12.5071      1.00000
     21      -7.1562      1.00000
     22      -7.1562      1.00000
     23      -6.9379      1.00000
     24      -6.9378      1.00000
     25      -6.8086      1.00000
     26      -6.8085      1.00000
     27      -6.7556      1.00000
     28      -6.7556      1.00000
     29      -6.4905      1.00000
     30      -6.4905      1.00000
     31      -6.4504      1.00000
     32      -6.4503      1.00000
     33      -6.3886      1.00000
     34      -6.3886      1.00000
     35      -5.8740      1.00000
     36      -5.8740      1.00000
     37      -5.6686      1.00000
     38      -5.6686      1.00000
     39      -5.3007      1.00000
     40      -5.3007      1.00000
     41      -5.2496      1.00000
     42      -5.2495      1.00000
     43      -4.9772      1.00000
     44      -4.9772      1.00000
     45      -4.8988      1.00000
     46      -4.8988      1.00000
     47      -4.8368      1.00000
     48      -4.8367      1.00000
     49      -4.8234      1.00000
     50      -4.8234      1.00000
     51      -4.7972      1.00000
     52      -4.7971      1.00000
     53      -4.7473      1.00000
     54      -4.7473      1.00000
     55      -4.6429      1.00000
     56      -4.6429      1.00000
     57      -4.4733      1.00000
     58      -4.4732      1.00000
     59      -4.4662      1.00000
     60      -4.4661      1.00000
[...]
    266       5.9457      0.00000
    267       5.9876      0.00000
    268       5.9877      0.00000
    269       6.0221      0.00000
    270       6.0221      0.00000
    271       6.1769      0.00000
    272       6.1769      0.00000
    273       6.2183      0.00000
    274       6.2184      0.00000
    275       6.3192      0.00000
    276       6.3193      0.00000
    277       6.4060      0.00000
    278       6.4063      0.00000
    279       6.4734      0.00000
    280       6.4777      0.00000

 soft charge-density along one line, spin component           1
         0         1         2         3         4         5         6         7         8         9
 total charge-density along one line

[...]

 soft charge-density along one line, spin component           4
         0         1         2         3         4         5         6         7         8         9
 total charge-density along one line

------------------------ aborting loop because EDIFF is reached ----------------------------------------

[...]

  FORCE on cell =-STRESS in cart. coord.  units (eV):
  Direction    XX          YY          ZZ          XY          YZ          ZX
  Alpha Z    66.99798    66.99798    66.99798
  Ewald   34419.20487 35129.83058-39702.47554    -0.00000     0.00022     0.12264
  Hartree 36224.22986 37002.88055-34769.10712    -0.00001    -0.00002     0.01796
  E(xc)    -658.10001  -657.55935  -660.98315     0.00000     0.00000    -0.00187
  Local  -73093.73399-74590.69715 71994.71955     0.00002    -0.00012    -0.13698
  n-local  1010.93370   996.14409  1014.41368     0.00000     0.00000     0.01636
  augment   796.32989   811.73358   813.16603    -0.00000     0.00001    -0.00479
  Kinetic  1220.80167  1231.77901  1232.96618    -0.00001     0.00002     0.00261
  Fock        0.00000     0.00000     0.00000     0.00000     0.00000     0.00000
  Total     -13.33603    -8.89071   -10.30239     0.00001     0.00011     0.01593
  in kB     -12.89540    -8.59695    -9.96199     0.00001     0.00011     0.01540

 VOLUME and BASIS-vectors are now :
  energy-cutoff  :      303.22
  volume of cell :     1656.92
      direct lattice vectors                 reciprocal lattice vectors
    17.803673428  0.000000000  0.000000000     0.056168184  0.000000000  0.000000000
     0.000000000  3.717366373  0.000000000     0.000000000  0.269007652 -0.000000000
     0.000000000  0.000000000 25.035562452     0.000000000  0.000000000  0.039943181

  length of vectors
    17.803673428  3.717366373 25.035562452     0.056168184  0.269007652  0.039943181

 FORCES acting on ions
    electron-ion (+dipol)            ewald-force                    non-local-force                 convergence-correction
   -.110E+03 -.344E-04 0.501E+02   0.108E+03 -.388E-04 -.495E+02   0.797E+00 0.529E-05 -.400E+00   0.685E+00 0.600E-04 -.752E-01
   -.110E+03 -.150E-04 -.501E+02   0.108E+03 0.388E-04 0.496E+02   0.794E+00 0.658E-07 0.400E+00   0.680E+00 -.215E-04 0.975E-01
   0.110E+03 -.393E-04 0.501E+02   -.108E+03 -.388E-04 -.496E+02   -.806E+00 0.340E-05 -.405E+00   -.683E+00 0.618E-04 -.751E-01
   0.110E+03 -.145E-04 -.501E+02   -.109E+03 0.388E-04 0.495E+02   -.813E+00 -.191E-05 0.405E+00   -.680E+00 -.220E-04 0.956E-01
   0.809E+02 0.557E-04 0.564E+03   -.815E+02 -.961E-04 -.562E+03   0.283E+00 0.108E-03 -.885E+00   0.349E+00 -.861E-04 -.169E+01
   0.808E+02 0.546E-03 -.565E+03   -.814E+02 0.961E-04 0.562E+03   0.298E+00 0.643E-03 0.896E+00   0.305E+00 -.132E-02 0.169E+01
   -.806E+02 0.501E-04 0.564E+03   0.813E+02 -.961E-04 -.562E+03   -.283E+00 0.109E-03 -.907E+00   -.373E+00 -.798E-04 -.165E+01
   -.805E+02 0.537E-03 -.565E+03   0.812E+02 0.961E-04 0.562E+03   -.290E+00 0.643E-03 0.876E+00   -.338E+00 -.130E-02 0.174E+01
   -.562E+00 0.142E-03 0.479E+02   0.526E+00 -.448E-04 -.488E+02   0.952E-02 0.144E-03 -.104E+00   0.325E-01 -.253E-03 0.110E+01
   -.393E+00 0.598E-03 -.475E+02   0.381E+00 0.448E-04 0.484E+02   0.999E-02 0.654E-03 0.738E-01   0.461E-02 -.133E-02 -.991E+00
   -.105E+03 0.157E-04 0.709E+03   0.107E+03 0.334E-04 -.716E+03   -.142E+01 -.217E-04 0.747E+01   0.844E-01 -.273E-04 -.104E+01
   -.106E+03 -.403E-04 -.710E+03   0.107E+03 -.334E-04 0.716E+03   -.141E+01 0.147E-04 -.747E+01   0.795E-01 0.520E-04 0.105E+01
   0.547E+02 0.131E-04 0.660E+03   -.550E+02 -.899E-05 -.664E+03   0.105E+01 -.372E-05 0.507E+01   -.662E+00 -.243E-05 -.812E+00
   0.546E+02 0.886E-04 -.660E+03   -.549E+02 0.899E-05 0.664E+03   0.106E+01 -.338E-04 -.507E+01   -.671E+00 -.601E-04 0.819E+00
   0.106E+03 0.156E-04 0.709E+03   -.107E+03 0.335E-04 -.716E+03   0.140E+01 -.186E-04 0.747E+01   -.880E-01 -.288E-04 -.103E+01
   0.106E+03 -.403E-04 -.710E+03   -.107E+03 -.334E-04 0.716E+03   0.141E+01 0.147E-04 -.747E+01   -.809E-01 0.518E-04 0.105E+01
   -.548E+02 0.176E-04 0.660E+03   0.551E+02 -.898E-05 -.664E+03   -.105E+01 -.688E-05 0.508E+01   0.667E+00 -.360E-05 -.820E+00
   -.548E+02 0.787E-04 -.660E+03   0.551E+02 0.899E-05 0.664E+03   -.105E+01 -.292E-04 -.508E+01   0.669E+00 -.588E-04 0.819E+00
   -.127E+00 -.434E-04 0.601E+03   0.131E+00 -.293E-04 -.605E+03   -.234E-02 0.143E-04 0.447E+01   -.215E-02 0.511E-04 -.424E+00
   -.175E+00 0.723E-05 -.600E+03   0.170E+00 0.293E-04 0.604E+03   0.143E-02 -.203E-04 -.446E+01   0.443E-02 -.167E-04 0.443E+00
   0.110E-01 0.194E-02 -.246E+00   -.799E-13 0.631E-13 -.227E-12   -.432E-02 0.222E-02 -.447E-01   -.180E-01 -.433E-02 0.294E+00

 POSITION                                       TOTAL-FORCE (eV/Angst)
     15.51898      0.92934     12.44182         0.058569      0.000001      0.074041
      6.61685      2.78802     12.59408         0.055365      0.000011     -0.076067
      2.29925      0.92934     12.44144        -0.060892     -0.000004      0.072471
     11.20189      2.78802     12.59429        -0.065543      0.000009     -0.071925
     12.97833      0.92934     11.77745        -0.034730     -0.000009     -0.023752
      4.07598      2.78802     13.25903        -0.035789     -0.000022      0.020690
      4.83946      0.92934     11.77709         0.034555     -0.000008     -0.020886
     13.74157      2.78802     13.25919         0.034903     -0.000020      0.021305
      8.90704      0.92934     12.37051         0.006834     -0.000003      0.086164
      0.00563      2.78802     12.66458         0.003161     -0.000024     -0.085589
     14.31190      2.78802     10.58080        -0.012609      0.000009      0.108777
      5.40956      0.92934     14.45539        -0.010110      0.000002     -0.109322
     10.69318      0.92934     10.56251         0.098227      0.000007      0.121428
      1.79052      2.78802     14.47337         0.101769      0.000013     -0.122220
      3.50692      2.78802     10.58040         0.005593      0.000011      0.109688
     12.40877      0.92934     14.45569         0.006230      0.000002     -0.109668
      7.12347      0.92934     10.56106        -0.093298      0.000007      0.128834
     16.02572      2.78802     14.47455        -0.092933      0.000009     -0.127771
      0.00715      0.92934     10.89807        -0.000521      0.000002      0.095344
      8.90899      2.78802     14.13663         0.001217      0.000008     -0.091544
    total drift:                               -0.011334     -0.000179      0.003007

  FREE ENERGIE OF THE ION-ELECTRON SYSTEM (eV)
  free  energy   TOTEN  =      -120.34889874 eV

  energy  without entropy=     -120.34889874  energy(sigma->0) =     -120.34889874

 Spin-Orbit-Coupling matrix elements

 Ion:    1  E_soc:     -0.2845223
 l=   1
     0.0000000    -0.0236312    -0.0248826
    -0.0236312     0.0000000    -0.0248644
    -0.0248826    -0.0248644     0.0000000
 l=   2
     0.0000000    -0.0045972     0.0000000    -0.0042519    -0.0161464
    -0.0045972     0.0000000    -0.0152116    -0.0053482    -0.0047516
     0.0000000    -0.0152116     0.0000000    -0.0145331     0.0000000
    -0.0042519    -0.0053482    -0.0145331     0.0000000    -0.0040430
    -0.0161464    -0.0047516     0.0000000    -0.0040430     0.0000000
 l=   3
     0.0000000     0.0000000     0.0000000     0.0000000     0.0000000     0.0000000     0.0000000
     0.0000000     0.0000000     0.0000000     0.0000000     0.0000000     0.0000000     0.0000000
     0.0000000     0.0000000     0.0000000     0.0000000     0.0000000     0.0000000     0.0000000
     0.0000000     0.0000000     0.0000000     0.0000000     0.0000000     0.0000000     0.0000000
     0.0000000     0.0000000     0.0000000     0.0000000     0.0000000     0.0000000     0.0000000
     0.0000000     0.0000000     0.0000000     0.0000000     0.0000000     0.0000000     0.0000000
     0.0000000     0.0000000     0.0000000     0.0000000     0.0000000     0.0000000     0.0000000

[...]

 Ion:   20  E_soc:     -0.2050937
 l=   1
     0.0000000    -0.0332412    -0.0352239
    -0.0332412     0.0000000    -0.0339533
    -0.0352239    -0.0339533     0.0000000
 l=   2
     0.0000000    -0.0000335     0.0000000    -0.0000262    -0.0000272
    -0.0000335     0.0000000    -0.0000992     0.0000319    -0.0000099
     0.0000000    -0.0000992     0.0000000     0.0000024     0.0000000
    -0.0000262     0.0000319     0.0000024     0.0000000     0.0000332
    -0.0000272    -0.0000099     0.0000000     0.0000332     0.0000000
 l=   3
     0.0000000     0.0000000     0.0000000     0.0000000     0.0000000     0.0000000     0.0000000
     0.0000000     0.0000000     0.0000000     0.0000000     0.0000000     0.0000000     0.0000000
     0.0000000     0.0000000     0.0000000     0.0000000     0.0000000     0.0000000     0.0000000
     0.0000000     0.0000000     0.0000000     0.0000000     0.0000000     0.0000000     0.0000000
     0.0000000     0.0000000     0.0000000     0.0000000     0.0000000     0.0000000     0.0000000
     0.0000000     0.0000000     0.0000000     0.0000000     0.0000000     0.0000000     0.0000000
     0.0000000     0.0000000     0.0000000     0.0000000     0.0000000     0.0000000     0.0000000

 total charge

[...]

 magnetization (x)

[...]

 magnetization (y)

[...]

 magnetization (z)

# of ion       s       p       d       tot
    1        0.000  -0.000   0.001   0.001
    2        0.000  -0.000   0.001   0.001
    3       -0.000   0.000  -0.001  -0.001
    4       -0.000   0.000  -0.001  -0.001
    5       -0.001  -0.000   0.001  -0.001
    6       -0.001  -0.000   0.001  -0.001
    7        0.001   0.000  -0.001   0.001
    8        0.001   0.000  -0.001   0.001
    9       -0.000  -0.000  -0.000  -0.000
   10       -0.000   0.000  -0.000  -0.000
   11       -0.000   0.002   0.000   0.002
   12       -0.000   0.002   0.000   0.002
   13       -0.000   0.000   0.000   0.000
   14       -0.000   0.000   0.000   0.000
   15        0.000  -0.002  -0.000  -0.002
   16        0.000  -0.002  -0.000  -0.002
   17        0.000  -0.000  -0.000  -0.000
   18        0.000  -0.000  -0.000  -0.000
   19       -0.000  -0.000   0.000  -0.000
   20       -0.000  -0.000  -0.000  -0.000
tot         -0.000   0.000  -0.000   0.000