 vasp.6.4.2 20Jul23 (build Nov 14 2023 12:59:38) complex

 executed on             LinuxIFC date 2024.06.27  20:31:27

 INCAR:
   ENCUT = 303.223
   ALGO = Normal
   NELM = 200
   NELMIN = 6
   NELMDL = -12
   EDIFF = 1.0E-6
   AMIX = 0.1
   BMIX = 0.0001
   NBANDS = 160
   PREC = Accurate
   IVDW = 0
   ISPIN = 1
   ADDGRID = .TRUE.
   LASPH = .TRUE.
   LREAL = Auto
   LHFCALC = .TRUE.
   AEXX = 0.250
   HFSCREEN = 0.207
   NSW = 0
   EDIFFG = -0.010
   IBRION = 2
   ISIF = 3
   POTIM = 0.5
   STRESSTYPE = 2
   ISMEAR = 0
   SIGMA = 0.01
   LORBIT = 10
   NEDOS = 6001
   NWRITE = 1
   LWAVE = .FALSE.
   LCHARG = .TRUE.
   KPAR = 4
   LPLANE = .TRUE.
   LWANNIER90 = .TRUE.
   NUM_WANN = 160
   WANNIER90_WIN = \"\
\
Begin Projections\
random\
Ta:  p,d\
Ni:  p,d\
Te:  s,p\
End Projections\
\
use_ws_distance\=.false.\
\
\
spinors \= false\
\
num_iter \= 2000\
\
kmesh_tol \= 0.000001\
\#search_shells \= 500\
\
guiding_centres \= true\
\
\!postproc_setup \= T\
\
\!restart \= plot\
\
 write_hr \= T\
\
bands_plot \= T \! do a band structure calculation at the end\
	\
begin kpoint_path \! along the following path\
G  0.0000000000     0.0000000000     0.0000000000  X  0.5000000000     0.0000000000     0.0000000000\
X  0.5000000000     0.0000000000     0.0000000000  R  0.5000000000     0.5000000000     0.0000000000\
R  0.5000000000     0.5000000000     0.0000000000  Y  0.0000000000     0.5000000000     0.0000000000\
Y  0.0000000000     0.5000000000     0.0000000000  G  0.0000000000     0.0000000000     0.0000000000\
end kpoint_path\
\"

 POTCAR:    PAW_PBE Ta 17Jan2003
 POTCAR:    PAW_PBE Ni 02Aug2007
 POTCAR:    PAW_PBE Te 08Apr2002
|           W    W    AA    RRRRR   N    N  II  N    N   GGGG   !!!           |
|           W    W   A  A   R    R  NN   N  II  NN   N  G    G  !!!           |
|           W    W  A    A  R    R  N N  N  II  N N  N  G       !!!           |
|           W WW W  AAAAAA  RRRRR   N  N N  II  N  N N  G  GGG   !            |
|           WW  WW  A    A  R   R   N   NN  II  N   NN  G    G                |
|           W    W  A    A  R    R  N    N  II  N    N   GGGG   !!!           |
|     For optimal performance we recommend to set                             |
|       NCORE = 2 up to number-of-cores-per-socket                            |
|     This setting can greatly improve the performance of VASP for DFT.       |
|     The default, NCORE=1 might be grossly inefficient on modern             |
|     multi-core architectures or massively parallel machines. Do your        |
|     Unfortunately you need to use the default for GW and RPA                |
|     calculations (for HF NCORE is supported but not extensively tested      |
|     yet).                                                                   |

 POTCAR:    PAW_PBE Ta 17Jan2003

 POTCAR:    PAW_PBE Ni 02Aug2007

 POTCAR:    PAW_PBE Te 08Apr2002

 Optimization of the real space projectors (new method)

 maximal supplied QI-value         = 12.85
 optimisation between [QCUT,QGAM] = [  8.87, 17.73] = [ 22.01, 88.06] Ry
 Optimized for a Real-space Cutoff    1.95 Angstroem

   l    n(q)    QCUT    max X(q) W(low)/X(q) W(high)/X(q)  e(spline)
   2      9     8.867    62.315    0.12E-03    0.33E-04    0.12E-05
   2      9     8.867    52.185    0.13E-03    0.33E-04    0.12E-05
   0     10     8.867   103.837    0.13E-04    0.28E-04    0.12E-06
   0     10     8.867    59.728    0.12E-04    0.25E-04    0.11E-06
   1     10     8.867    13.958    0.44E-04    0.17E-05    0.15E-06
   1     10     8.867     8.441    0.31E-04    0.26E-05    0.11E-06
 Optimization of the real space projectors (new method)

[...]

   l    n(q)    QCUT    max X(q) W(low)/X(q) W(high)/X(q)  e(spline)
   2      7     8.776    60.317    0.16E-03    0.44E-03    0.23E-06
   2      7     8.776    55.921    0.17E-03    0.44E-03    0.23E-06
   0      8     8.776    51.690    0.22E-03    0.25E-03    0.51E-07
   0      8     8.776    30.015    0.20E-03    0.23E-03    0.47E-07
   1      8     8.776    18.849    0.17E-03    0.19E-03    0.10E-06
   1      8     8.776    14.624    0.15E-03    0.15E-03    0.88E-07
 Optimization of the real space projectors (new method)

 maximal supplied QI-value         = 16.25
 optimisation between [QCUT,QGAM] = [  8.78, 17.71] = [ 21.57, 87.87] Ry
 Optimized for a Real-space Cutoff    1.49 Angstroem

   l    n(q)    QCUT    max X(q) W(low)/X(q) W(high)/X(q)  e(spline)
   0      8     8.776   224.858    0.15E-03    0.19E-04    0.75E-07
   0      8     8.776   205.313    0.15E-03    0.20E-04    0.76E-07
   1      7     8.776   119.695    0.23E-03    0.47E-03    0.95E-07
   1      7     8.776    84.282    0.23E-03    0.46E-03    0.93E-07
   2      7     8.776     5.599    0.87E-04    0.38E-04    0.37E-07
  PAW_PBE Ta 17Jan2003                  :
  PAW_PBE Ni 02Aug2007                  :
  PAW_PBE Te 08Apr2002                  :

 POSCAR: Ta8 Ni12 Te20
  positions in direct lattice
  velocities in cartesian coordinates
 exchange correlation table for  LEXCH =        8
   RHO(1)=    0.500       N(1)  =     2000
   RHO(2)=  100.500       N(2)  =     4000

 ion  position               nearest neighbor table
   1  0.872  0.250  0.497-   5 2.63   8 2.70   8 2.70  19 2.76  18 2.80  18 2.80  11 2.89  11 2.89
                            10 2.96  10 2.96
   2  0.372  0.750  0.503-   6 2.63   7 2.70   7 2.70  20 2.76  17 2.80  17 2.80  12 2.89  12 2.89
                             9 2.96   9 2.96
   3  0.129  0.250  0.497-   7 2.63   6 2.70   6 2.70  19 2.76  14 2.80  14 2.80  15 2.89  15 2.89
                            10 2.96  10 2.96
   4  0.629  0.750  0.503-   8 2.63   5 2.70   5 2.70  20 2.76  13 2.80  13 2.80  16 2.89  16 2.89
                             9 2.96   9 2.96
   5  0.729  0.250  0.470-   8 2.50   8 2.50  11 2.58  11 2.58  13 2.59   1 2.63   4 2.70   4 2.70
                            16 2.74
   6  0.229  0.750  0.530-   7 2.50   7 2.50  12 2.58  12 2.58  14 2.59   2 2.63   3 2.70   3 2.70
                            15 2.74
   7  0.272  0.250  0.470-   6 2.50   6 2.50  15 2.58  15 2.58  17 2.59   3 2.63   2 2.70   2 2.70
                            12 2.74
   8  0.772  0.750  0.530-   5 2.50   5 2.50  16 2.58  16 2.58  18 2.59   4 2.63   1 2.70   1 2.70
                            11 2.74
   9  0.500  0.250  0.494-  17 2.54  13 2.54  20 2.56  20 2.56   2 2.96   2 2.96   4 2.96   4 2.96

  10  0.000  0.750  0.506-  18 2.54  14 2.54  19 2.56  19 2.56   1 2.96   1 2.96   3 2.96   3 2.96

  11  0.804  0.750  0.423-   5 2.58   5 2.58   8 2.74   1 2.89   1 2.89
  12  0.304  0.250  0.577-   6 2.58   6 2.58   7 2.74   2 2.89   2 2.89
  13  0.601  0.250  0.422-   9 2.54   5 2.59   4 2.80   4 2.80  17 3.57
  14  0.101  0.750  0.578-  10 2.54   6 2.59   3 2.80   3 2.80  18 3.57
  15  0.197  0.750  0.423-   7 2.58   7 2.58   6 2.74   3 2.89   3 2.89
  16  0.697  0.250  0.577-   8 2.58   8 2.58   5 2.74   4 2.89   4 2.89
  17  0.400  0.250  0.422-   9 2.54   7 2.59   2 2.80   2 2.80  13 3.57
  18  0.900  0.750  0.578-  10 2.54   8 2.59   1 2.80   1 2.80  14 3.57
  19  0.000  0.250  0.435-  10 2.56  10 2.56   1 2.76   3 2.76
  20  0.500  0.750  0.565-   9 2.56   9 2.56   2 2.76   4 2.76

  LATTYP: Found a simple orthorhombic cell.
 ALAT       =     3.7173663731
 B/A-ratio  =     4.7893243875
 C/A-ratio  =     6.7347578740

  Lattice vectors:

 A1 = (   0.0000000000,  -3.7173663731,   0.0000000000)
 A2 = (  17.8036734280,   0.0000000000,   0.0000000000)
 A3 = (   0.0000000000,   0.0000000000,  25.0355624519)

Analysis of symmetry for initial positions (statically):
 Subroutine PRICEL returns:
 Original cell was already a primitive cell.

 Routine SETGRP: Setting up the symmetry group for a
 simple orthorhombic supercell.

 Subroutine GETGRP returns: Found  2 space group operations
 (whereof  1 operations were pure point group operations)
 out of a pool of  8 trial point group operations.

The static configuration has the point symmetry C_1 .
 The point group associated with its full space group is C_1h.

Analysis of symmetry for dynamics (positions and initial velocities):
 Subroutine PRICEL returns:
 Original cell was already a primitive cell.

 Routine SETGRP: Setting up the symmetry group for a
 simple orthorhombic supercell.

 Subroutine GETGRP returns: Found  2 space group operations
 (whereof  1 operations were pure point group operations)
 out of a pool of  8 trial point group operations.

The dynamic configuration has the point symmetry C_1 .
 The point group associated with its full space group is C_1h.

 Subroutine INISYM returns: Found  2 space group operations
 (whereof  1 operations are pure point group operations),
 and found     1 'primitive' translations

                                     Primitive cell

  volume of cell :    1656.9230

  direct lattice vectors                    reciprocal lattice vectors
    17.803673428  0.000000000  0.000000000     0.056168184  0.000000000  0.000000000
     0.000000000  3.717366373  0.000000000     0.000000000  0.269007652 -0.000000000
     0.000000000  0.000000000 25.035562452     0.000000000  0.000000000  0.039943181

  length of vectors
    17.803673428  3.717366373 25.035562452     0.056168184  0.269007652  0.039943181

  position of ions in fractional coordinates (direct lattice)
     0.871673196  0.249999970  0.496965903
     0.371656673  0.749999881  0.503047488
     0.129144954  0.249999970  0.496950766
     0.629189849  0.749999881  0.503056190
     0.728969198  0.249999970  0.470428878
     0.228940622  0.749999881  0.529607779
     0.271823733  0.249999970  0.470414353
     0.771838868  0.749999881  0.529614355
     0.500292249  0.249999970  0.494117339
     0.000316075  0.749999881  0.505863449
     0.803873609  0.749999881  0.422630908
     0.303845329  0.249999970  0.577394114
     0.600616500  0.249999970  0.421900216
     0.100570225  0.749999881  0.578112336
     0.196977383  0.749999881  0.422614921
     0.696977929  0.249999970  0.577406064
     0.400112091  0.249999970  0.421842527
     0.900135743  0.749999881  0.578159661
     0.000401553  0.249999970  0.435303419
     0.500401798  0.749999881  0.564661933

  ion indices of the primitive-cell ions
   primitive index   ion index
                 1           1
                 2           2
                 3           3
                 4           4
                 5           5
                 6           6
                 7           7
                 8           8
                 9           9
                10          10
                11          11
                12          12
                13          13
                14          14
                15          15
                16          16
                17          17
                18          18
                19          19
                20          20

 KPOINTS: Gamma centered

Automatic generation of k-mesh.
 Grid dimensions read from file:
 generate k-points for:    6   11    1

 Generating k-lattice:

  Cartesian coordinates                     Fractional coordinates (reciprocal lattice)
     0.009361364  0.000000000  0.000000000     0.166666667  0.000000000  0.000000000
[...]
    159       8.2354      0.00000
    160       8.2358      0.00000

 soft charge-density along one line, spin component           1
         0         1         2         3         4         5         6         7         8         9
 total charge-density along one line

------------------------ aborting loop because EDIFF is reached ----------------------------------------

 MLWF driver (Wannier functions)
 Calling wannier_setup of wannier90 in library mode
 Wannier90 mode
 Computing MMN (overlap matrix elements)
 Writing MMN to wannier90.mmn
 Writing EIG to wannier90.eig

 LOCPROJ orbitals
  n  l  m   za        pos                       proj_x                    proj_z
  1  1  1   1.890    -0.128   0.250   0.497     1.000   0.000   0.000     0.000   0.000   1.000
  1  1  2   1.890    -0.128   0.250   0.497     1.000   0.000   0.000     0.000   0.000   1.000
  1  1  3   1.890    -0.128   0.250   0.497     1.000   0.000   0.000     0.000   0.000   1.000
  1  2  1   1.890    -0.128   0.250   0.497     1.000   0.000   0.000     0.000   0.000   1.000
  1  2  2   1.890    -0.128   0.250   0.497     1.000   0.000   0.000     0.000   0.000   1.000
  1  2  3   1.890    -0.128   0.250   0.497     1.000   0.000   0.000     0.000   0.000   1.000
  1  2  4   1.890    -0.128   0.250   0.497     1.000   0.000   0.000     0.000   0.000   1.000
  1  2  5   1.890    -0.128   0.250   0.497     1.000   0.000   0.000     0.000   0.000   1.000
  1  1  1   1.890     0.372  -0.250  -0.497     1.000   0.000   0.000     0.000   0.000   1.000
  1  1  2   1.890     0.372  -0.250  -0.497     1.000   0.000   0.000     0.000   0.000   1.000
  1  1  3   1.890     0.372  -0.250  -0.497     1.000   0.000   0.000     0.000   0.000   1.000
  1  2  1   1.890     0.372  -0.250  -0.497     1.000   0.000   0.000     0.000   0.000   1.000
  1  2  2   1.890     0.372  -0.250  -0.497     1.000   0.000   0.000     0.000   0.000   1.000
  1  2  3   1.890     0.372  -0.250  -0.497     1.000   0.000   0.000     0.000   0.000   1.000
  1  2  4   1.890     0.372  -0.250  -0.497     1.000   0.000   0.000     0.000   0.000   1.000
  1  2  5   1.890     0.372  -0.250  -0.497     1.000   0.000   0.000     0.000   0.000   1.000
  1  1  1   1.890     0.129   0.250   0.497     1.000   0.000   0.000     0.000   0.000   1.000
  1  1  2   1.890     0.129   0.250   0.497     1.000   0.000   0.000     0.000   0.000   1.000
  1  1  3   1.890     0.129   0.250   0.497     1.000   0.000   0.000     0.000   0.000   1.000
  1  2  1   1.890     0.129   0.250   0.497     1.000   0.000   0.000     0.000   0.000   1.000
  1  2  2   1.890     0.129   0.250   0.497     1.000   0.000   0.000     0.000   0.000   1.000
  1  2  3   1.890     0.129   0.250   0.497     1.000   0.000   0.000     0.000   0.000   1.000
  1  2  4   1.890     0.129   0.250   0.497     1.000   0.000   0.000     0.000   0.000   1.000
  1  2  5   1.890     0.129   0.250   0.497     1.000   0.000   0.000     0.000   0.000   1.000
  1  1  1   1.890    -0.371  -0.250  -0.497     1.000   0.000   0.000     0.000   0.000   1.000
  1  1  2   1.890    -0.371  -0.250  -0.497     1.000   0.000   0.000     0.000   0.000   1.000
  1  1  3   1.890    -0.371  -0.250  -0.497     1.000   0.000   0.000     0.000   0.000   1.000
  1  2  1   1.890    -0.371  -0.250  -0.497     1.000   0.000   0.000     0.000   0.000   1.000
  1  2  2   1.890    -0.371  -0.250  -0.497     1.000   0.000   0.000     0.000   0.000   1.000
  1  2  3   1.890    -0.371  -0.250  -0.497     1.000   0.000   0.000     0.000   0.000   1.000
  1  2  4   1.890    -0.371  -0.250  -0.497     1.000   0.000   0.000     0.000   0.000   1.000
  1  2  5   1.890    -0.371  -0.250  -0.497     1.000   0.000   0.000     0.000   0.000   1.000
  1  1  1   1.890    -0.271   0.250   0.470     1.000   0.000   0.000     0.000   0.000   1.000
  1  1  2   1.890    -0.271   0.250   0.470     1.000   0.000   0.000     0.000   0.000   1.000
  1  1  3   1.890    -0.271   0.250   0.470     1.000   0.000   0.000     0.000   0.000   1.000
  1  2  1   1.890    -0.271   0.250   0.470     1.000   0.000   0.000     0.000   0.000   1.000
  1  2  2   1.890    -0.271   0.250   0.470     1.000   0.000   0.000     0.000   0.000   1.000
  1  2  3   1.890    -0.271   0.250   0.470     1.000   0.000   0.000     0.000   0.000   1.000
  1  2  4   1.890    -0.271   0.250   0.470     1.000   0.000   0.000     0.000   0.000   1.000
  1  2  5   1.890    -0.271   0.250   0.470     1.000   0.000   0.000     0.000   0.000   1.000
  1  1  1   1.890     0.229  -0.250  -0.470     1.000   0.000   0.000     0.000   0.000   1.000
  1  1  2   1.890     0.229  -0.250  -0.470     1.000   0.000   0.000     0.000   0.000   1.000
  1  1  3   1.890     0.229  -0.250  -0.470     1.000   0.000   0.000     0.000   0.000   1.000
  1  2  1   1.890     0.229  -0.250  -0.470     1.000   0.000   0.000     0.000   0.000   1.000
  1  2  2   1.890     0.229  -0.250  -0.470     1.000   0.000   0.000     0.000   0.000   1.000
  1  2  3   1.890     0.229  -0.250  -0.470     1.000   0.000   0.000     0.000   0.000   1.000
  1  2  4   1.890     0.229  -0.250  -0.470     1.000   0.000   0.000     0.000   0.000   1.000
  1  2  5   1.890     0.229  -0.250  -0.470     1.000   0.000   0.000     0.000   0.000   1.000
  1  1  1   1.890     0.272   0.250   0.470     1.000   0.000   0.000     0.000   0.000   1.000
  1  1  2   1.890     0.272   0.250   0.470     1.000   0.000   0.000     0.000   0.000   1.000
  1  1  3   1.890     0.272   0.250   0.470     1.000   0.000   0.000     0.000   0.000   1.000
  1  2  1   1.890     0.272   0.250   0.470     1.000   0.000   0.000     0.000   0.000   1.000
  1  2  2   1.890     0.272   0.250   0.470     1.000   0.000   0.000     0.000   0.000   1.000
  1  2  3   1.890     0.272   0.250   0.470     1.000   0.000   0.000     0.000   0.000   1.000
  1  2  4   1.890     0.272   0.250   0.470     1.000   0.000   0.000     0.000   0.000   1.000
  1  2  5   1.890     0.272   0.250   0.470     1.000   0.000   0.000     0.000   0.000   1.000
  1  1  1   1.890    -0.228  -0.250  -0.470     1.000   0.000   0.000     0.000   0.000   1.000
  1  1  2   1.890    -0.228  -0.250  -0.470     1.000   0.000   0.000     0.000   0.000   1.000
  1  1  3   1.890    -0.228  -0.250  -0.470     1.000   0.000   0.000     0.000   0.000   1.000
  1  2  1   1.890    -0.228  -0.250  -0.470     1.000   0.000   0.000     0.000   0.000   1.000
[...]
  1  0  1   1.890     0.045   0.497   0.392     1.000   0.000   0.000     0.000   0.000   1.000
  1  0  1   1.890    -0.230  -0.206  -0.459     1.000   0.000   0.000     0.000   0.000   1.000
  1  0  1   1.890    -0.048   0.217   0.248     1.000   0.000   0.000     0.000   0.000   1.000
  1  0  1   1.890     0.164   0.320   0.380     1.000   0.000   0.000     0.000   0.000   1.000
  1  0  1   1.890     0.284   0.111   0.358     1.000   0.000   0.000     0.000   0.000   1.000
  1  0  1   1.890     0.164  -0.370   0.437     1.000   0.000   0.000     0.000   0.000   1.000
  1  0  1   1.890     0.223   0.290   0.246     1.000   0.000   0.000     0.000   0.000   1.000
  1  0  1   1.890    -0.012   0.406   0.268     1.000   0.000   0.000     0.000   0.000   1.000
  1  0  1   1.890     0.457  -0.465  -0.275     1.000   0.000   0.000     0.000   0.000   1.000
  1  0  1   1.890    -0.384   0.446   0.058     1.000   0.000   0.000     0.000   0.000   1.000
  1  0  1   1.890     0.238   0.366   0.242     1.000   0.000   0.000     0.000   0.000   1.000
  1  0  1   1.890     0.333  -0.084   0.115     1.000   0.000   0.000     0.000   0.000   1.000
  1  0  1   1.890    -0.315   0.344  -0.247     1.000   0.000   0.000     0.000   0.000   1.000
  1  0  1   1.890     0.199  -0.439   0.087     1.000   0.000   0.000     0.000   0.000   1.000
  1  0  1   1.890     0.484  -0.200  -0.269     1.000   0.000   0.000     0.000   0.000   1.000

 Computing AMN (projections onto localized orbitals)
 Writing AMN to wannier90.amn

 MMN -> overlap matrix elements
 AMM -> projections of Bloch states onto localized states
 UMN -> unitary matrix transforming from Bloch states to Wannier states

 Parameters of MLWF datastructure
 num_band =          160
 num_wann =          160

 Computiation of AMN
 proj = Wannier90

 Transformation from AMN to UMN
 trafo = One-shot SVD method

------------------------ end of MLWF driver reached ----------------------------------------------------

 total charge

# of ion       s       p       d       tot
    1        1.028   0.692   3.167   4.887
    2        1.028   0.692   3.167   4.887
    3        1.028   0.692   3.167   4.887
    4        1.028   0.692   3.167   4.887
    5        0.437   0.520   8.550   9.506
    6        0.436   0.520   8.550   9.506
    7        0.437   0.520   8.550   9.506
    8        0.437   0.520   8.550   9.507
    9        0.391   0.462   8.540   9.393
   10        0.391   0.462   8.540   9.393
   11        1.337   2.094   0.061   3.491
   12        1.337   2.094   0.061   3.491
   13        1.340   2.120   0.062   3.522
   14        1.340   2.120   0.062   3.522
   15        1.337   2.094   0.061   3.491
   16        1.337   2.094   0.061   3.491
   17        1.340   2.120   0.062   3.522
   18        1.340   2.120   0.062   3.522
   19        1.330   2.158   0.059   3.547
   20        1.330   2.159   0.059   3.548
tot         20.011  26.943  64.553 111.508

  FORCE on cell =-STRESS in cart. coord.  units (eV):
  Direction    XX          YY          ZZ          XY          YZ          ZX
  Alpha Z    66.99798    66.99798    66.99798
  Ewald   34419.20487 35129.83058-39702.47554    -0.00000     0.00022     0.12264
  Hartree 36214.25022 37005.13216-34721.28209    -0.00000     0.00009     0.01884
  E(xc)    -502.18643  -501.62700  -503.94800     0.00000    -0.00000    -0.00157
  Local  -73071.86075-74589.69582 71952.28407     0.00000    -0.00028    -0.13563
  n-local  1330.07767  1333.23122  1352.99359    -0.02530    -0.00005     0.01415
  augment   752.38618   771.40729   772.09604    -0.00000    -0.00000    -0.00586
  Kinetic  1217.58710  1222.39788  1220.84671     0.08731     0.00003     0.00333
  Fock     -436.83555  -447.05980  -448.99834    -0.01108    -0.00001     0.00116
  Total     -10.37869    -9.38551   -11.48558     0.00000    -0.00000     0.01706
  in kB     -10.03577    -9.07541   -11.10609     0.00000    -0.00000     0.01649

 VOLUME and BASIS-vectors are now :
  energy-cutoff  :      303.22
  volume of cell :     1656.92
      direct lattice vectors                 reciprocal lattice vectors
    17.803673428  0.000000000  0.000000000     0.056168184  0.000000000  0.000000000
     0.000000000  3.717366373  0.000000000     0.000000000  0.269007652 -0.000000000
     0.000000000  0.000000000 25.035562452     0.000000000  0.000000000  0.039943181

  length of vectors
    17.803673428  3.717366373 25.035562452     0.056168184  0.269007652  0.039943181

 FORCES acting on ions
    electron-ion (+dipol)            ewald-force                    non-local-force                 convergence-correction
   -.109E+03 0.178E-04 0.500E+02   0.108E+03 -.388E-04 -.495E+02   0.593E+00 -.274E-16 -.451E+00   -.202E-03 0.681E-07 0.223E-03
   -.109E+03 -.235E-04 -.501E+02   0.108E+03 0.388E-04 0.496E+02   0.591E+00 0.274E-16 0.450E+00   -.188E-03 0.583E-07 -.224E-03
   0.109E+03 0.177E-04 0.501E+02   -.108E+03 -.388E-04 -.496E+02   -.602E+00 -.275E-16 -.454E+00   0.202E-03 0.110E-06 0.220E-03
   0.109E+03 -.234E-04 -.500E+02   -.109E+03 0.388E-04 0.495E+02   -.607E+00 0.275E-16 0.455E+00   0.195E-03 -.513E-08 -.222E-03
   0.813E+02 0.417E-04 0.563E+03   -.815E+02 -.961E-04 -.562E+03   0.112E+00 -.599E-16 -.100E+01   0.816E-03 0.218E-06 0.748E-02
   0.812E+02 -.440E-04 -.563E+03   -.814E+02 0.961E-04 0.562E+03   0.111E+00 0.599E-16 0.100E+01   0.812E-03 -.327E-06 -.747E-02
   -.810E+02 0.416E-04 0.562E+03   0.813E+02 -.961E-04 -.562E+03   -.120E+00 -.599E-16 -.100E+01   -.822E-03 0.135E-06 0.745E-02
   -.809E+02 -.440E-04 -.563E+03   0.812E+02 0.961E-04 0.562E+03   -.122E+00 0.598E-16 0.998E+00   -.826E-03 -.457E-06 -.746E-02
   -.540E+00 0.488E-05 0.492E+02   0.526E+00 -.448E-04 -.488E+02   0.210E-01 -.234E-16 -.390E+00   -.586E-04 -.307E-06 0.191E-02
   -.392E+00 0.537E-05 -.488E+02   0.381E+00 0.448E-04 0.484E+02   0.120E-01 0.235E-16 0.392E+00   -.407E-04 -.423E-06 -.191E-02
   -.105E+03 0.579E-04 0.708E+03   0.107E+03 0.334E-04 -.716E+03   -.138E+01 0.473E-15 0.790E+01   -.840E-04 -.104E-06 -.217E-02
   -.105E+03 0.200E-04 -.708E+03   0.107E+03 -.334E-04 0.716E+03   -.138E+01 -.473E-15 -.790E+01   -.781E-04 -.114E-07 0.217E-02
   0.538E+02 0.244E-05 0.658E+03   -.550E+02 -.899E-05 -.664E+03   0.124E+01 0.342E-15 0.571E+01   -.407E-03 -.354E-07 -.257E-02
   0.537E+02 0.853E-04 -.659E+03   -.549E+02 0.899E-05 0.664E+03   0.125E+01 -.342E-15 -.571E+01   -.397E-03 -.242E-06 0.258E-02
   0.105E+03 0.580E-04 0.708E+03   -.107E+03 0.335E-04 -.716E+03   0.137E+01 0.473E-15 0.790E+01   0.854E-04 -.159E-06 -.217E-02
   0.106E+03 0.200E-04 -.708E+03   -.107E+03 -.334E-04 0.716E+03   0.137E+01 -.473E-15 -.790E+01   0.843E-04 0.995E-07 0.217E-02
   -.539E+02 0.248E-05 0.659E+03   0.551E+02 -.898E-05 -.664E+03   -.124E+01 0.342E-15 0.572E+01   0.404E-03 -.154E-06 -.257E-02
   -.539E+02 0.853E-04 -.659E+03   0.551E+02 0.899E-05 0.664E+03   -.124E+01 -.342E-15 -.572E+01   0.390E-03 -.153E-06 0.258E-02
   -.132E+00 0.195E-04 0.600E+03   0.131E+00 -.293E-04 -.605E+03   -.686E-03 0.283E-15 0.472E+01   -.290E-05 0.689E-07 -.254E-02
   -.173E+00 0.650E-04 -.600E+03   0.170E+00 0.293E-04 0.604E+03   0.327E-02 -.282E-15 -.471E+01   -.253E-06 -.382E-07 0.253E-02
   -.691E-02 0.410E-03 -.527E-02   -.799E-13 0.631E-13 -.227E-12   -.730E-02 0.392E-18 0.639E-02   -.116E-03 -.166E-05 -.891E-05

 POSITION                                       TOTAL-FORCE (eV/Angst)
     15.51898      0.92934     12.44182        -0.005106      0.000000      0.021126
      6.61685      2.78802     12.59408        -0.008046     -0.000000     -0.023348
      2.29925      0.92934     12.44144         0.006199      0.000000      0.020417
     11.20189      2.78802     12.59429         0.001041     -0.000000     -0.019578
     12.97833      0.92934     11.77745         0.001715     -0.000000     -0.119581
      4.07598      2.78802     13.25903         0.001213      0.000000      0.117762
      4.83946      0.92934     11.77709        -0.004041     -0.000000     -0.118146
     13.74157      2.78802     13.25919        -0.003832      0.000000      0.117398
      8.90704      0.92934     12.37051         0.005395     -0.000000     -0.087054
      0.00563      2.78802     12.66458         0.001769      0.000000      0.086848
     14.31190      2.78802     10.58080        -0.051451      0.000000      0.645704
      5.40956      0.92934     14.45539        -0.049080     -0.000000     -0.646028
     10.69318      0.92934     10.56251         0.127069      0.000000      0.659639
      1.79052      2.78802     14.47337         0.130546     -0.000000     -0.660682
      3.50692      2.78802     10.58040         0.044467      0.000000      0.646926
     12.40877      0.92934     14.45569         0.045371     -0.000000     -0.646581
      7.12347      0.92934     10.56106        -0.121889      0.000000      0.666690
     16.02572      2.78802     14.47455        -0.121469     -0.000000     -0.665683
      0.00715      0.92934     10.89807        -0.000975      0.000000      0.529535
      8.90899      2.78802     14.13663         0.001103     -0.000000     -0.525363
    total drift:                               -0.010162      0.000408      0.001100

  FREE ENERGIE OF THE ION-ELECTRON SYSTEM (eV)
  free  energy   TOTEN  =      -141.87275008 eV

  energy  without entropy=     -141.87275008  energy(sigma->0) =     -141.87275008

 total charge

# of ion       s       p       d       tot
    1        1.028   0.692   3.167   4.887
    2        1.028   0.692   3.167   4.887
    3        1.028   0.692   3.167   4.887
    4        1.028   0.692   3.167   4.887
    5        0.437   0.520   8.550   9.506
    6        0.436   0.520   8.550   9.506
    7        0.437   0.520   8.550   9.506
    8        0.437   0.520   8.550   9.507
    9        0.391   0.462   8.540   9.393
   10        0.391   0.462   8.540   9.393
   11        1.337   2.094   0.061   3.491
   12        1.337   2.094   0.061   3.491
   13        1.340   2.120   0.062   3.522
   14        1.340   2.120   0.062   3.522
   15        1.337   2.094   0.061   3.491
   16        1.337   2.094   0.061   3.491
   17        1.340   2.120   0.062   3.522
   18        1.340   2.120   0.062   3.522
   19        1.330   2.158   0.059   3.547
   20        1.330   2.159   0.059   3.548
tot         20.011  26.943  64.553 111.508