 vasp.6.4.2 20Jul23 (build Nov 14 2023 12:59:38) complex

 executed on             LinuxIFC date 2024.06.22  12:31:49

 INCAR:
   ENCUT = 303.223
   ALGO = Normal
   NELM = 200
   NELMIN = 6
   NELMDL = -12
   EDIFF = 1.0E-6
   AMIX = 0.1
   BMIX = 0.0001
   NBANDS = 140
   PREC = Accurate
   IVDW = 0
   ISPIN = 1
   ADDGRID = .TRUE.
   LASPH = .TRUE.
   LREAL = Auto
   NSW = 0
   EDIFFG = -0.010
   IBRION = 2
   ISIF = 3
   POTIM = 0.5
   STRESSTYPE = 2
   ISMEAR = 0
   SIGMA = 0.01
   LORBIT = 10
   NEDOS = 6001
   NWRITE = 1
   LWAVE = .FALSE.
   LCHARG = .FALSE.
   ICHARG = 11
   NCORE = 4
   LPLANE = .TRUE.

 POTCAR:    PAW_PBE Ta 17Jan2003
 POTCAR:    PAW_PBE Ni 02Aug2007
 POTCAR:    PAW_PBE Te 08Apr2002
 POTCAR:    PAW_PBE Ta 17Jan2003

 POTCAR:    PAW_PBE Ni 02Aug2007

 POTCAR:    PAW_PBE Te 08Apr2002

 Optimization of the real space projectors (new method)

 maximal supplied QI-value         = 12.85
 optimisation between [QCUT,QGAM] = [  8.87, 17.73] = [ 22.01, 88.06] Ry
 Optimized for a Real-space Cutoff    1.95 Angstroem

   l    n(q)    QCUT    max X(q) W(low)/X(q) W(high)/X(q)  e(spline)
   2      9     8.867    62.315    0.12E-03    0.33E-04    0.12E-05
   2      9     8.867    52.185    0.13E-03    0.33E-04    0.12E-05
   0     10     8.867   103.837    0.13E-04    0.28E-04    0.12E-06
   0     10     8.867    59.728    0.12E-04    0.25E-04    0.11E-06
   1     10     8.867    13.958    0.44E-04    0.17E-05    0.15E-06
   1     10     8.867     8.441    0.31E-04    0.26E-05    0.11E-06
 Optimization of the real space projectors (new method)

[...]

   l    n(q)    QCUT    max X(q) W(low)/X(q) W(high)/X(q)  e(spline)
   2      7     8.776    60.317    0.16E-03    0.44E-03    0.23E-06
   2      7     8.776    55.921    0.17E-03    0.44E-03    0.23E-06
   0      8     8.776    51.690    0.22E-03    0.25E-03    0.51E-07
   0      8     8.776    30.015    0.20E-03    0.23E-03    0.47E-07
   1      8     8.776    18.849    0.17E-03    0.19E-03    0.10E-06
   1      8     8.776    14.624    0.15E-03    0.15E-03    0.88E-07
 Optimization of the real space projectors (new method)

 maximal supplied QI-value         = 16.25
 optimisation between [QCUT,QGAM] = [  8.78, 17.71] = [ 21.57, 87.87] Ry
 Optimized for a Real-space Cutoff    1.49 Angstroem

   l    n(q)    QCUT    max X(q) W(low)/X(q) W(high)/X(q)  e(spline)
   0      8     8.776   224.858    0.15E-03    0.19E-04    0.75E-07
   0      8     8.776   205.313    0.15E-03    0.20E-04    0.76E-07
   1      7     8.776   119.695    0.23E-03    0.47E-03    0.95E-07
   1      7     8.776    84.282    0.23E-03    0.46E-03    0.93E-07
   2      7     8.776     5.599    0.87E-04    0.38E-04    0.37E-07
  PAW_PBE Ta 17Jan2003                  :
  PAW_PBE Ni 02Aug2007                  :
  PAW_PBE Te 08Apr2002                  :

 POSCAR: Ta8 Ni12 Te20
  positions in direct lattice
  velocities in cartesian coordinates
 exchange correlation table for  LEXCH =        8
   RHO(1)=    0.500       N(1)  =     2000
   RHO(2)=  100.500       N(2)  =     4000

 ion  position               nearest neighbor table
   1  0.872  0.250  0.497-   5 2.63   8 2.70   8 2.70  19 2.76  18 2.80  18 2.80  11 2.89  11 2.89
                            10 2.96  10 2.96
   2  0.372  0.750  0.503-   6 2.63   7 2.70   7 2.70  20 2.76  17 2.80  17 2.80  12 2.89  12 2.89
                             9 2.96   9 2.96
   3  0.129  0.250  0.497-   7 2.63   6 2.70   6 2.70  19 2.76  14 2.80  14 2.80  15 2.89  15 2.89
                            10 2.96  10 2.96
   4  0.629  0.750  0.503-   8 2.63   5 2.70   5 2.70  20 2.76  13 2.80  13 2.80  16 2.89  16 2.89
                             9 2.96   9 2.96
   5  0.729  0.250  0.470-   8 2.50   8 2.50  11 2.58  11 2.58  13 2.59   1 2.63   4 2.70   4 2.70
                            16 2.74
   6  0.229  0.750  0.530-   7 2.50   7 2.50  12 2.58  12 2.58  14 2.59   2 2.63   3 2.70   3 2.70
                            15 2.74
   7  0.272  0.250  0.470-   6 2.50   6 2.50  15 2.58  15 2.58  17 2.59   3 2.63   2 2.70   2 2.70
                            12 2.74
   8  0.772  0.750  0.530-   5 2.50   5 2.50  16 2.58  16 2.58  18 2.59   4 2.63   1 2.70   1 2.70
                            11 2.74
   9  0.500  0.250  0.494-  17 2.54  13 2.54  20 2.56  20 2.56   2 2.96   2 2.96   4 2.96   4 2.96

  10  0.000  0.750  0.506-  18 2.54  14 2.54  19 2.56  19 2.56   1 2.96   1 2.96   3 2.96   3 2.96

  11  0.804  0.750  0.423-   5 2.58   5 2.58   8 2.74   1 2.89   1 2.89
  12  0.304  0.250  0.577-   6 2.58   6 2.58   7 2.74   2 2.89   2 2.89
  13  0.601  0.250  0.422-   9 2.54   5 2.59   4 2.80   4 2.80  17 3.57
  14  0.101  0.750  0.578-  10 2.54   6 2.59   3 2.80   3 2.80  18 3.57
  15  0.197  0.750  0.423-   7 2.58   7 2.58   6 2.74   3 2.89   3 2.89
  16  0.697  0.250  0.577-   8 2.58   8 2.58   5 2.74   4 2.89   4 2.89
  17  0.400  0.250  0.422-   9 2.54   7 2.59   2 2.80   2 2.80  13 3.57
  18  0.900  0.750  0.578-  10 2.54   8 2.59   1 2.80   1 2.80  14 3.57
  19  0.000  0.250  0.435-  10 2.56  10 2.56   1 2.76   3 2.76
  20  0.500  0.750  0.565-   9 2.56   9 2.56   2 2.76   4 2.76

  LATTYP: Found a simple orthorhombic cell.
 ALAT       =     3.7173663731
 B/A-ratio  =     4.7893243875
 C/A-ratio  =     6.7347578740

  Lattice vectors:

 A1 = (   0.0000000000,  -3.7173663731,   0.0000000000)
 A2 = (  17.8036734280,   0.0000000000,   0.0000000000)
 A3 = (   0.0000000000,   0.0000000000,  25.0355624519)

Analysis of symmetry for initial positions (statically):
 Subroutine PRICEL returns:
 Original cell was already a primitive cell.

 Routine SETGRP: Setting up the symmetry group for a
 simple orthorhombic supercell.

 Subroutine GETGRP returns: Found  2 space group operations
 (whereof  1 operations were pure point group operations)
 out of a pool of  8 trial point group operations.

The static configuration has the point symmetry C_1 .
 The point group associated with its full space group is C_1h.

Analysis of symmetry for dynamics (positions and initial velocities):
 Subroutine PRICEL returns:
 Original cell was already a primitive cell.

 Routine SETGRP: Setting up the symmetry group for a
 simple orthorhombic supercell.

 Subroutine GETGRP returns: Found  2 space group operations
 (whereof  1 operations were pure point group operations)
 out of a pool of  8 trial point group operations.

The dynamic configuration has the point symmetry C_1 .
 The point group associated with its full space group is C_1h.

 Subroutine INISYM returns: Found  2 space group operations
 (whereof  1 operations are pure point group operations),
 and found     1 'primitive' translations

                                     Primitive cell

  volume of cell :    1656.9230

  direct lattice vectors                    reciprocal lattice vectors
    17.803673428  0.000000000  0.000000000     0.056168184  0.000000000  0.000000000
     0.000000000  3.717366373  0.000000000     0.000000000  0.269007652 -0.000000000
     0.000000000  0.000000000 25.035562452     0.000000000  0.000000000  0.039943181

  length of vectors
    17.803673428  3.717366373 25.035562452     0.056168184  0.269007652  0.039943181

  position of ions in fractional coordinates (direct lattice)
     0.871673196  0.249999970  0.496965903
     0.371656673  0.749999881  0.503047488
     0.129144954  0.249999970  0.496950766
     0.629189849  0.749999881  0.503056190
     0.728969198  0.249999970  0.470428878
     0.228940622  0.749999881  0.529607779
     0.271823733  0.249999970  0.470414353
     0.771838868  0.749999881  0.529614355
     0.500292249  0.249999970  0.494117339
     0.000316075  0.749999881  0.505863449
     0.803873609  0.749999881  0.422630908
     0.303845329  0.249999970  0.577394114
     0.600616500  0.249999970  0.421900216
     0.100570225  0.749999881  0.578112336
     0.196977383  0.749999881  0.422614921
     0.696977929  0.249999970  0.577406064
     0.400112091  0.249999970  0.421842527
     0.900135743  0.749999881  0.578159661
     0.000401553  0.249999970  0.435303419
     0.500401798  0.749999881  0.564661933

  ion indices of the primitive-cell ions
   primitive index   ion index
                 1           1
                 2           2
                 3           3
                 4           4
                 5           5
                 6           6
                 7           7
                 8           8
                 9           9
                10          10
                11          11
                12          12
                13          13
                14          14
                15          15
                16          16
                17          17
                18          18
                19          19
                20          20

 KPOINTS: kpoints along symmetry lines

Interpolating k-points between supplied coordinates.

 Line segments in fractional coordinates (reciprocal lattice):
    0.000000  0.000000  0.000000  ...  0.500000  0.000000  0.000000
    0.500000  0.000000  0.000000  ...  0.500000  0.500000  0.000000
    0.500000  0.500000  0.000000  ...  0.000000  0.500000  0.000000
    0.000000  0.500000  0.000000  ...  0.000000  0.000000  0.000000

 Generated    30 points on each line segment, for a total of    120 k-points:

 Following reciprocal coordinates:
            Coordinates               Weight
  0.000000  0.000000  0.000000      0.008333
  0.017241  0.000000  0.000000      0.008333
  0.034483  0.000000  0.000000      0.008333
  0.051724  0.000000  0.000000      0.008333
  0.068966  0.000000  0.000000      0.008333
  0.086207  0.000000  0.000000      0.008333
  0.103448  0.000000  0.000000      0.008333
  0.120690  0.000000  0.000000      0.008333
  0.137931  0.000000  0.000000      0.008333
  0.155172  0.000000  0.000000      0.008333
  0.172414  0.000000  0.000000      0.008333
  0.189655  0.000000  0.000000      0.008333
  0.206897  0.000000  0.000000      0.008333
  0.224138  0.000000  0.000000      0.008333
  0.241379  0.000000  0.000000      0.008333
  0.258621  0.000000  0.000000      0.008333
  0.275862  0.000000  0.000000      0.008333
  0.293103  0.000000  0.000000      0.008333
  0.310345  0.000000  0.000000      0.008333
  0.327586  0.000000  0.000000      0.008333
  0.344828  0.000000  0.000000      0.008333
  0.362069  0.000000  0.000000      0.008333
  0.379310  0.000000  0.000000      0.008333
  0.396552  0.000000  0.000000      0.008333
  0.413793  0.000000  0.000000      0.008333
  0.431034  0.000000  0.000000      0.008333
  0.448276  0.000000  0.000000      0.008333
  0.465517  0.000000  0.000000      0.008333
  0.482759  0.000000  0.000000      0.008333
  0.500000  0.000000  0.000000      0.008333
  0.500000  0.000000  0.000000      0.008333
  0.500000  0.017241  0.000000      0.008333
  0.500000  0.034483  0.000000      0.008333
  0.500000  0.051724  0.000000      0.008333
  0.500000  0.068966  0.000000      0.008333
  0.500000  0.086207  0.000000      0.008333
  0.500000  0.103448  0.000000      0.008333
  0.500000  0.120690  0.000000      0.008333
  0.500000  0.137931  0.000000      0.008333
  0.500000  0.155172  0.000000      0.008333
[...]

--------------------------------------- Ionic step        1  -------------------------------------------

--------------------------------------- Iteration      1(   1)  ---------------------------------------

 eigenvalue-minimisations  : 34112
 total energy-change (2. order) : 0.6292364E+03  (-0.3401504E+04)
 number of electron     140.0000003 magnetization
 augmentation part      140.0000003 magnetization

 Free energy of the ion-electron system (eV)
  alpha Z        PSCENC =        66.99798409
  Ewald energy   TEWEN  =     29846.57578200
  -Hartree energ DENC   =    -38446.02547803
  -exchange      EXHF   =         0.00000000
  -V(xc)+E(xc)   XCENC  =      -355.98798962
  PAW double counting   =     14071.25236194   -13801.97065516
  entropy T*S    EENTRO =        -0.00062222
  eigenvalues    EBANDS =        27.28412428
  atomic energy  EATOM  =      9221.11089956
  Solvation  Ediel_sol  =         0.00000000
  free energy    TOTEN  =       629.23640684 eV

  energy without entropy =      629.23702906  energy(sigma->0) =      629.23671795

[...]

 eigenvalue-minimisations  : 43348
 total energy-change (2. order) :-0.6725382E+03  (-0.6283876E+03)
 number of electron     140.0000003 magnetization
 augmentation part      140.0000003 magnetization

[...]

--------------------------------------- Iteration      1(  13)  ---------------------------------------

 eigenvalue-minimisations  : 20512
 total energy-change (2. order) :-0.6184564E-09  (-0.6627102E-09)
 number of electron     140.0000003 magnetization
 augmentation part      140.0000003 magnetization

 Free energy of the ion-electron system (eV)
  alpha Z        PSCENC =        66.99798409
  Ewald energy   TEWEN  =     29846.57578200
  -Hartree energ DENC   =    -38446.02547803
  -exchange      EXHF   =         0.00000000
  -V(xc)+E(xc)   XCENC  =      -355.98798962
  PAW double counting   =     14071.25236194   -13801.97065516
  entropy T*S    EENTRO =        -0.00000000
  eigenvalues    EBANDS =      -720.69555090
  atomic energy  EATOM  =      9221.11089956
  Solvation  Ediel_sol  =         0.00000000
  free energy    TOTEN  =      -118.74264612 eV

  energy without entropy =     -118.74264612  energy(sigma->0) =     -118.74264612

 average (electrostatic) potential at core
  the test charge radii are     1.2538  0.9791  1.1897
  (the norm of the test charge is              1.0000)
       1 -43.6006       2 -43.6009       3 -43.6003       4 -43.6006       5 -92.6708
       6 -92.6692       7 -92.6705       8 -92.6707       9 -92.3072      10 -92.3072
      11 -95.9007      12 -95.8998      13 -95.7637      14 -95.7629      15 -95.9011
      16 -95.9011      17 -95.7645      18 -95.7638      19 -95.7216      20 -95.7206

 E-fermi :  -1.1148     XC(G=0):  -3.3069     alpha+bet : -3.4031

 Fermi energy:        -1.1147721770

 k-point     1 :       0.0000    0.0000    0.0000
  band No.  band energies     occupation
      1     -14.0067      2.00000
      2     -13.7460      2.00000
      3     -13.5901      2.00000
      4     -13.1175      2.00000
      5     -13.1134      2.00000
      6     -12.8803      2.00000
      7     -12.8679      2.00000
      8     -12.8532      2.00000
      9     -12.7293      2.00000
     10     -12.5250      2.00000
     11      -7.1577      2.00000
     12      -6.9380      2.00000
     13      -6.7986      2.00000
     14      -6.7502      2.00000
     15      -6.4824      2.00000
     16      -6.4426      2.00000
     17      -6.3830      2.00000
     18      -5.8603      2.00000
     19      -5.6701      2.00000
     20      -5.3018      2.00000
     21      -5.2257      2.00000
     22      -4.9052      2.00000
     23      -4.8703      2.00000
     24      -4.8531      2.00000
     25      -4.8501      2.00000
     26      -4.7996      2.00000
     27      -4.7469      2.00000
     28      -4.6509      2.00000
     29      -4.4750      2.00000
     30      -4.4723      2.00000
     31      -4.1923      2.00000
     32      -4.0915      2.00000
     33      -4.0132      2.00000
     34      -3.8886      2.00000
     35      -3.7936      2.00000
     36      -3.7152      2.00000
     37      -3.6722      2.00000
     38      -3.6700      2.00000
     39      -3.4844      2.00000
     40      -3.4085      2.00000
     41      -3.3305      2.00000
     42      -3.2711      2.00000
     43      -3.2564      2.00000
     44      -3.2059      2.00000
     45      -3.0997      2.00000
     46      -2.9875      2.00000
     47      -2.9607      2.00000
     48      -2.9543      2.00000
     49      -2.8724      2.00000
     50      -2.7622      2.00000
     51      -2.7123      2.00000
     52      -2.5680      2.00000
     53      -2.5654      2.00000
     54      -2.4952      2.00000
     55      -2.4340      2.00000
     56      -2.4134      2.00000
     57      -2.3962      2.00000
     58      -2.3375      2.00000
     59      -2.2571      2.00000
     60      -2.2322      2.00000
[...]
    126       5.4089      0.00000
    127       5.5054      0.00000
    128       5.6981      0.00000
    129       5.7073      0.00000
    130       5.7478      0.00000
    131       5.7611      0.00000
    132       5.8439      0.00000
    133       5.9493      0.00000
    134       5.9839      0.00000
    135       6.0222      0.00000
    136       6.1810      0.00000
    137       6.2081      0.00000
    138       6.3190      0.00000
    139       6.4058      0.00000
    140       6.4582      0.00000

[...]

 k-point   120 :       0.0000    0.0000    0.0000
  band No.  band energies     occupation
      1     -14.0067      2.00000
      2     -13.7460      2.00000
      3     -13.5901      2.00000
      4     -13.1175      2.00000
      5     -13.1134      2.00000
      6     -12.8803      2.00000
      7     -12.8679      2.00000
      8     -12.8532      2.00000
      9     -12.7293      2.00000
     10     -12.5250      2.00000
     11      -7.1577      2.00000
     12      -6.9380      2.00000
     13      -6.7986      2.00000
     14      -6.7502      2.00000
     15      -6.4824      2.00000
     16      -6.4426      2.00000
     17      -6.3830      2.00000
     18      -5.8603      2.00000
     19      -5.6701      2.00000
     20      -5.3018      2.00000
     21      -5.2257      2.00000
     22      -4.9052      2.00000
     23      -4.8703      2.00000
     24      -4.8531      2.00000
     25      -4.8501      2.00000
     26      -4.7996      2.00000
     27      -4.7469      2.00000
     28      -4.6509      2.00000
     29      -4.4750      2.00000
     30      -4.4723      2.00000
     31      -4.1923      2.00000
     32      -4.0915      2.00000
     33      -4.0132      2.00000
     34      -3.8886      2.00000
     35      -3.7936      2.00000
     36      -3.7152      2.00000
     37      -3.6722      2.00000
     38      -3.6700      2.00000
     39      -3.4844      2.00000
     40      -3.4085      2.00000
     41      -3.3305      2.00000
     42      -3.2711      2.00000
     43      -3.2564      2.00000
     44      -3.2059      2.00000
     45      -3.0997      2.00000
     46      -2.9875      2.00000
     47      -2.9607      2.00000
     48      -2.9543      2.00000
     49      -2.8724      2.00000
     50      -2.7622      2.00000
     51      -2.7123      2.00000
     52      -2.5680      2.00000
     53      -2.5654      2.00000
     54      -2.4952      2.00000
     55      -2.4340      2.00000
     56      -2.4134      2.00000
     57      -2.3962      2.00000
     58      -2.3375      2.00000
     59      -2.2571      2.00000
     60      -2.2322      2.00000
[...]
    126       5.4089      0.00000
    127       5.5054      0.00000
    128       5.6981      0.00000
    129       5.7073      0.00000
    130       5.7478      0.00000
    131       5.7611      0.00000
    132       5.8439      0.00000
    133       5.9493      0.00000
    134       5.9839      0.00000
    135       6.0222      0.00000
    136       6.1810      0.00000
    137       6.2081      0.00000
    138       6.3190      0.00000
    139       6.4058      0.00000
    140       6.4579      0.00000

 soft charge-density along one line, spin component           1
         0         1         2         3         4         5         6         7         8         9
 total charge-density along one line

------------------------ aborting loop because EDIFF is reached ----------------------------------------

 total charge

# of ion       s       p       d       tot
    1        0.561   0.663   3.291   4.515
    2        0.561   0.663   3.291   4.515
    3        0.561   0.663   3.291   4.515
    4        0.561   0.663   3.291   4.515
    5        0.456   0.540   8.421   9.417
    6        0.456   0.540   8.420   9.416
    7        0.456   0.540   8.421   9.417
    8        0.456   0.540   8.421   9.417
    9        0.411   0.473   8.383   9.267
   10        0.411   0.473   8.383   9.267
   11        1.371   1.955   0.063   3.389
   12        1.371   1.954   0.063   3.388
   13        1.373   1.978   0.062   3.413
   14        1.373   1.978   0.062   3.413
   15        1.371   1.954   0.063   3.389
   16        1.371   1.954   0.063   3.388
   17        1.373   1.978   0.062   3.413
   18        1.373   1.978   0.062   3.413
   19        1.364   1.999   0.058   3.421
   20        1.364   1.999   0.058   3.420
tot         18.594  25.484  64.229 108.307

  FORCE on cell =-STRESS in cart. coord.  units (eV):
  Direction    XX          YY          ZZ          XY          YZ          ZX
  Alpha Z    66.99798    66.99798    66.99798
  Ewald   34419.20487 35129.83058-39702.47554    -0.00000     0.00022     0.12264
  Hartree 36221.56347 37000.25795-34766.94931    -0.00000     0.00008     0.01756
  E(xc)    -657.93571  -657.40019  -660.82431     0.00000    -0.00000    -0.00189
  Local  -73090.49965-74587.88605 71992.30355     0.00000    -0.00027    -0.13665
  n-local  1011.87416   996.99298  1015.68810     0.00000     0.00000     0.01652
  augment   796.36952   812.18618   813.41427     0.00000     0.00001    -0.00489
  Kinetic  1218.52087  1229.75564  1230.83793    -0.00000     0.00002     0.00276
  Fock        0.00000     0.00000     0.00000     0.00000     0.00000     0.00000
  Total     -13.90449    -9.26492   -11.00732     0.00000    -0.00000     0.01605
  in kB     -13.44508    -8.95880   -10.64363     0.00000    -0.00000     0.01552

 VOLUME and BASIS-vectors are now :
  energy-cutoff  :      303.22
  volume of cell :     1656.92
      direct lattice vectors                 reciprocal lattice vectors
    17.803673428  0.000000000  0.000000000     0.056168184  0.000000000  0.000000000
     0.000000000  3.717366373  0.000000000     0.000000000  0.269007652 -0.000000000
     0.000000000  0.000000000 25.035562452     0.000000000  0.000000000  0.039943181

  length of vectors
    17.803673428  3.717366373 25.035562452     0.056168184  0.269007652  0.039943181

 FORCES acting on ions
    electron-ion (+dipol)            ewald-force                    non-local-force                 convergence-correction
   -.110E+03 0.129E-04 0.501E+02   0.108E+03 -.388E-04 -.495E+02   0.788E+00 -.232E-16 -.387E+00   0.679E+00 0.252E-04 -.710E-01
   -.110E+03 -.183E-04 -.501E+02   0.108E+03 0.388E-04 0.496E+02   0.786E+00 0.232E-16 0.387E+00   0.672E+00 -.113E-04 0.936E-01
   0.110E+03 0.128E-04 0.501E+02   -.108E+03 -.388E-04 -.496E+02   -.798E+00 -.235E-16 -.392E+00   -.677E+00 0.251E-04 -.713E-01
   0.110E+03 -.183E-04 -.501E+02   -.109E+03 0.388E-04 0.495E+02   -.805E+00 0.235E-16 0.392E+00   -.671E+00 -.114E-04 0.919E-01
   0.809E+02 0.295E-04 0.564E+03   -.815E+02 -.961E-04 -.562E+03   0.286E+00 -.504E-16 -.842E+00   0.364E+00 -.137E-03 -.168E+01
   0.808E+02 -.284E-04 -.565E+03   -.814E+02 0.961E-04 0.562E+03   0.302E+00 0.511E-16 0.853E+00   0.311E+00 -.915E-03 0.168E+01
   -.805E+02 0.294E-04 0.564E+03   0.813E+02 -.961E-04 -.562E+03   -.286E+00 -.517E-16 -.864E+00   -.389E+00 -.137E-03 -.164E+01
   -.805E+02 -.284E-04 -.565E+03   0.812E+02 0.961E-04 0.562E+03   -.294E+00 0.499E-16 0.833E+00   -.347E+00 -.915E-03 0.173E+01
   -.562E+00 -.344E-05 0.478E+02   0.526E+00 -.448E-04 -.488E+02   0.956E-02 -.558E-17 -.931E-01   0.329E-01 -.195E-03 0.112E+01
   -.393E+00 0.201E-04 -.475E+02   0.381E+00 0.448E-04 0.484E+02   0.979E-02 0.379E-17 0.631E-01   0.521E-02 -.929E-03 -.101E+01
   -.105E+03 0.766E-04 0.709E+03   0.107E+03 0.334E-04 -.716E+03   -.144E+01 0.449E-15 0.750E+01   0.707E-01 -.141E-04 -.102E+01
   -.106E+03 0.163E-04 -.710E+03   0.107E+03 -.334E-04 0.716E+03   -.143E+01 -.449E-15 -.750E+01   0.632E-01 0.230E-04 0.104E+01
   0.547E+02 0.738E-06 0.660E+03   -.550E+02 -.899E-05 -.664E+03   0.104E+01 0.304E-15 0.507E+01   -.656E+00 -.182E-05 -.817E+00
   0.546E+02 0.105E-03 -.660E+03   -.549E+02 0.899E-05 0.664E+03   0.104E+01 -.304E-15 -.507E+01   -.668E+00 -.284E-04 0.822E+00
   0.106E+03 0.765E-04 0.709E+03   -.107E+03 0.335E-04 -.716E+03   0.142E+01 0.450E-15 0.750E+01   -.754E-01 -.141E-04 -.102E+01
   0.106E+03 0.163E-04 -.710E+03   -.107E+03 -.334E-04 0.716E+03   0.143E+01 -.449E-15 -.750E+01   -.639E-01 0.231E-04 0.104E+01
   -.548E+02 0.737E-06 0.660E+03   0.551E+02 -.898E-05 -.664E+03   -.103E+01 0.304E-15 0.508E+01   0.661E+00 -.183E-05 -.825E+00
   -.548E+02 0.105E-03 -.660E+03   0.551E+02 0.899E-05 0.664E+03   -.103E+01 -.304E-15 -.508E+01   0.665E+00 -.285E-04 0.823E+00
   -.128E+00 0.165E-04 0.601E+03   0.131E+00 -.293E-04 -.605E+03   -.233E-02 0.268E-15 0.447E+01   -.202E-02 0.221E-04 -.429E+00
   -.175E+00 0.840E-04 -.600E+03   0.170E+00 0.293E-04 0.604E+03   0.138E-02 -.267E-15 -.446E+01   0.485E-02 -.113E-04 0.451E+00
   0.124E-01 0.506E-03 -.246E+00   -.799E-13 0.631E-13 -.227E-12   -.475E-02 -.275E-17 -.453E-01   -.191E-01 -.323E-02 0.295E+00

 POSITION                                       TOTAL-FORCE (eV/Angst)
     15.51898      0.92934     12.44182         0.054528      0.000000      0.074351
      6.61685      2.78802     12.59408         0.051304     -0.000000     -0.076376
      2.29925      0.92934     12.44144        -0.056820      0.000000      0.072791
     11.20189      2.78802     12.59429        -0.061572     -0.000000     -0.072202
     12.97833      0.92934     11.77745        -0.034326     -0.000000     -0.025730
      4.07598      2.78802     13.25903        -0.035271      0.000000      0.022648
      4.83946      0.92934     11.77709         0.034076     -0.000000     -0.022893
     13.74157      2.78802     13.25919         0.034347      0.000000      0.023288
      8.90704      0.92934     12.37051         0.006937      0.000000      0.081677
      0.00563      2.78802     12.66458         0.003208     -0.000000     -0.081118
     14.31190      2.78802     10.58080        -0.018664      0.000000      0.126376
      5.40956      0.92934     14.45539        -0.016101     -0.000000     -0.126914
     10.69318      0.92934     10.56251         0.095516      0.000000      0.140027
      1.79052      2.78802     14.47337         0.099051     -0.000000     -0.140829
      3.50692      2.78802     10.58040         0.011687      0.000000      0.127282
     12.40877      0.92934     14.45569         0.012293     -0.000000     -0.127299
      7.12347      0.92934     10.56106        -0.090593      0.000000      0.147532
     16.02572      2.78802     14.47455        -0.090210     -0.000000     -0.146451
      0.00715      0.92934     10.89807        -0.000567      0.000000      0.118608
      8.90899      2.78802     14.13663         0.001178     -0.000000     -0.114768
    total drift:                               -0.011382     -0.002726      0.003049

  FREE ENERGIE OF THE ION-ELECTRON SYSTEM (eV)
  free  energy   TOTEN  =      -118.74264612 eV

  energy  without entropy=     -118.74264612  energy(sigma->0) =     -118.74264612

 total charge

# of ion       s       p       d       tot
    1        0.561   0.663   3.291   4.515
    2        0.561   0.663   3.291   4.515
    3        0.561   0.663   3.291   4.515
    4        0.561   0.663   3.291   4.515
    5        0.456   0.540   8.421   9.417
    6        0.456   0.540   8.420   9.416
    7        0.456   0.540   8.421   9.417
    8        0.456   0.540   8.421   9.417
    9        0.411   0.473   8.383   9.267
   10        0.411   0.473   8.383   9.267
   11        1.371   1.955   0.063   3.389
   12        1.371   1.954   0.063   3.388
   13        1.373   1.978   0.062   3.413
   14        1.373   1.978   0.062   3.413
   15        1.371   1.954   0.063   3.389
   16        1.371   1.954   0.063   3.388
   17        1.373   1.978   0.062   3.413
   18        1.373   1.978   0.062   3.413
   19        1.364   1.999   0.058   3.421
   20        1.364   1.999   0.058   3.420
tot         18.594  25.484  64.229 108.307