 vasp.6.4.2 20Jul23 (build Nov 14 2023 12:59:38) complex

 executed on             LinuxIFC date 2024.06.22  09:27:24

 INCAR:
   ENCUT = 539.064
   ALGO = Normal
   NELM = 200
   NELMIN = 6
   NELMDL = -12
   EDIFF = 1.0E-5
   AMIX = 0.1
   BMIX = 0.0001
   PREC = Accurate
   IVDW = 0
   ISPIN = 1
   ADDGRID = .TRUE.
   LASPH = .TRUE.
   LREAL = Auto
   NSW = 30
   EDIFFG = -0.010
   IBRION = 2
   ISIF = 3
   POTIM = 0.5
   STRESSTYPE = 2
   ISMEAR = 0
   SIGMA = 0.01
   LORBIT = 10
   NEDOS = 6001
   NWRITE = 1
   LWAVE = .FALSE.
   LCHARG = .FALSE.
   NCORE = 4
   LPLANE = .TRUE.

 POTCAR:    PAW_PBE Ta 17Jan2003
 POTCAR:    PAW_PBE Ni 02Aug2007
 POTCAR:    PAW_PBE Te 08Apr2002
 POTCAR:    PAW_PBE Ta 17Jan2003

 POTCAR:    PAW_PBE Ni 02Aug2007

 POTCAR:    PAW_PBE Te 08Apr2002

 Optimization of the real space projectors (new method)

 maximal supplied QI-value         = 12.85
 optimisation between [QCUT,QGAM] = [ 11.82, 23.77] = [ 39.14,158.26] Ry
 Optimized for a Real-space Cutoff    1.60 Angstroem

   l    n(q)    QCUT    max X(q) W(low)/X(q) W(high)/X(q)  e(spline)
   2     10    11.822    62.315    0.58E-04    0.74E-04    0.13E-05
   2     10    11.822    52.185    0.59E-04    0.74E-04    0.13E-05
   0     11    11.822   103.837    0.23E-04    0.11E-04    0.18E-06
   0     11    11.822    59.728    0.18E-04    0.10E-04    0.17E-06
   1     11    11.822    13.958    0.23E-03    0.50E-03    0.16E-05
   1     11    11.822     8.441    0.16E-03    0.35E-03    0.11E-05
 Optimization of the real space projectors (new method)

[...]

   l    n(q)    QCUT    max X(q) W(low)/X(q) W(high)/X(q)  e(spline)
   2      9    11.864    60.317    0.17E-03    0.41E-03    0.23E-06
   2      9    11.864    55.921    0.17E-03    0.42E-03    0.23E-06
   0     10    11.864    51.690    0.19E-03    0.16E-04    0.19E-06
   0     10    11.864    30.015    0.17E-03    0.16E-04    0.17E-06
   1      9    11.864    18.849    0.19E-03    0.28E-03    0.13E-06
   1      9    11.864    14.624    0.15E-03    0.23E-03    0.11E-06
 Optimization of the real space projectors (new method)

 maximal supplied QI-value         = 16.25
 optimisation between [QCUT,QGAM] = [ 11.86, 23.73] = [ 39.41,157.65] Ry
 Optimized for a Real-space Cutoff    1.38 Angstroem

   l    n(q)    QCUT    max X(q) W(low)/X(q) W(high)/X(q)  e(spline)
   0     10    11.864   224.858    0.33E-04    0.93E-04    0.16E-06
   0     10    11.864   205.313    0.33E-04    0.94E-04    0.16E-06
   1      9    11.864   119.695    0.17E-03    0.15E-03    0.11E-06
   1      9    11.864    84.282    0.17E-03    0.14E-03    0.11E-06
   2      9    11.864     5.599    0.13E-04    0.62E-04    0.67E-07
  PAW_PBE Ta 17Jan2003                  :
  PAW_PBE Ni 02Aug2007                  :
  PAW_PBE Te 08Apr2002                  :

 POSCAR: Ta8 Ni12 Te20
  positions in direct lattice
  velocities in cartesian coordinates
 exchange correlation table for  LEXCH =        8
   RHO(1)=    0.500       N(1)  =     2000
   RHO(2)=  100.500       N(2)  =     4000

 ion  position               nearest neighbor table
   1  0.872  0.250  0.497-   5 2.63   8 2.70   8 2.70  19 2.76  18 2.80  18 2.80  11 2.89  11 2.89
                            10 2.96  10 2.96
   2  0.372  0.750  0.503-   6 2.63   7 2.70   7 2.70  20 2.76  17 2.80  17 2.80  12 2.89  12 2.89
                             9 2.96   9 2.96
   3  0.129  0.250  0.497-   7 2.63   6 2.70   6 2.70  19 2.76  14 2.80  14 2.80  15 2.89  15 2.89
                            10 2.96  10 2.96
   4  0.629  0.750  0.503-   8 2.63   5 2.70   5 2.70  20 2.76  13 2.80  13 2.80  16 2.89  16 2.89
                             9 2.96   9 2.96
   5  0.729  0.250  0.470-   8 2.50   8 2.50  11 2.58  11 2.58  13 2.59   1 2.63   4 2.70   4 2.70
                            16 2.74
   6  0.229  0.750  0.530-   7 2.50   7 2.50  12 2.58  12 2.58  14 2.59   2 2.63   3 2.70   3 2.70
                            15 2.74
   7  0.272  0.250  0.470-   6 2.50   6 2.50  15 2.58  15 2.58  17 2.59   3 2.63   2 2.70   2 2.70
                            12 2.74
   8  0.772  0.750  0.530-   5 2.50   5 2.50  16 2.58  16 2.58  18 2.59   4 2.63   1 2.70   1 2.70
                            11 2.74
   9  0.500  0.250  0.494-  17 2.54  13 2.54  20 2.56  20 2.56   2 2.96   2 2.96   4 2.96   4 2.96

  10  0.000  0.750  0.506-  18 2.54  14 2.54  19 2.56  19 2.56   1 2.96   1 2.96   3 2.96   3 2.96

  11  0.804  0.750  0.423-   5 2.58   5 2.58   8 2.74   1 2.89   1 2.89
  12  0.304  0.250  0.577-   6 2.58   6 2.58   7 2.74   2 2.89   2 2.89
  13  0.601  0.250  0.422-   9 2.54   5 2.59   4 2.80   4 2.80  17 3.57
  14  0.101  0.750  0.578-  10 2.54   6 2.59   3 2.80   3 2.80  18 3.57
  15  0.197  0.750  0.423-   7 2.58   7 2.58   6 2.74   3 2.89   3 2.89
  16  0.697  0.250  0.577-   8 2.58   8 2.58   5 2.74   4 2.89   4 2.89
  17  0.400  0.250  0.422-   9 2.54   7 2.59   2 2.80   2 2.80  13 3.57
  18  0.900  0.750  0.578-  10 2.54   8 2.59   1 2.80   1 2.80  14 3.57
  19  0.000  0.250  0.435-  10 2.56  10 2.56   1 2.76   3 2.76
  20  0.500  0.750  0.565-   9 2.56   9 2.56   2 2.76   4 2.76

  LATTYP: Found a simple orthorhombic cell.
 ALAT       =     3.7173663731
 B/A-ratio  =     4.7893243875
 C/A-ratio  =     6.7347578740

  Lattice vectors:

 A1 = (   0.0000000000,  -3.7173663731,   0.0000000000)
 A2 = (  17.8036734280,   0.0000000000,   0.0000000000)
 A3 = (   0.0000000000,   0.0000000000,  25.0355624519)

Analysis of symmetry for initial positions (statically):
 Subroutine PRICEL returns:
 Original cell was already a primitive cell.

 Routine SETGRP: Setting up the symmetry group for a
 simple orthorhombic supercell.

 Subroutine GETGRP returns: Found  2 space group operations
 (whereof  1 operations were pure point group operations)
 out of a pool of  8 trial point group operations.

The static configuration has the point symmetry C_1 .
 The point group associated with its full space group is C_1h.

Analysis of symmetry for dynamics (positions and initial velocities):
 Subroutine PRICEL returns:
 Original cell was already a primitive cell.

 Routine SETGRP: Setting up the symmetry group for a
 simple orthorhombic supercell.

 Subroutine GETGRP returns: Found  2 space group operations
 (whereof  1 operations were pure point group operations)
 out of a pool of  8 trial point group operations.

The dynamic configuration has the point symmetry C_1 .
 The point group associated with its full space group is C_1h.

 Subroutine INISYM returns: Found  2 space group operations
 (whereof  1 operations are pure point group operations),
 and found     1 'primitive' translations

                                     Primitive cell

  volume of cell :    1656.9230

  direct lattice vectors                    reciprocal lattice vectors
    17.803673428  0.000000000  0.000000000     0.056168184  0.000000000  0.000000000
     0.000000000  3.717366373  0.000000000     0.000000000  0.269007652 -0.000000000
     0.000000000  0.000000000 25.035562452     0.000000000  0.000000000  0.039943181

  length of vectors
    17.803673428  3.717366373 25.035562452     0.056168184  0.269007652  0.039943181

  position of ions in fractional coordinates (direct lattice)
     0.871673196  0.249999970  0.496965903
     0.371656673  0.749999881  0.503047488
     0.129144954  0.249999970  0.496950766
     0.629189849  0.749999881  0.503056190
     0.728969198  0.249999970  0.470428878
     0.228940622  0.749999881  0.529607779
     0.271823733  0.249999970  0.470414353
     0.771838868  0.749999881  0.529614355
     0.500292249  0.249999970  0.494117339
     0.000316075  0.749999881  0.505863449
     0.803873609  0.749999881  0.422630908
     0.303845329  0.249999970  0.577394114
     0.600616500  0.249999970  0.421900216
     0.100570225  0.749999881  0.578112336
     0.196977383  0.749999881  0.422614921
     0.696977929  0.249999970  0.577406064
     0.400112091  0.249999970  0.421842527
     0.900135743  0.749999881  0.578159661
     0.000401553  0.249999970  0.435303419
     0.500401798  0.749999881  0.564661933

  ion indices of the primitive-cell ions
   primitive index   ion index
                 1           1
                 2           2
                 3           3
                 4           4
                 5           5
                 6           6
                 7           7
                 8           8
                 9           9
                10          10
                11          11
                12          12
                13          13
                14          14
                15          15
                16          16
                17          17
                18          18
                19          19
                20          20

 KPOINTS: Regular 4 x 4 x 4 mesh centered at Gamma

Automatic generation of k-mesh.
 Grid dimensions read from file:
 generate k-points for:    2   11    1

 Generating k-lattice:

  Cartesian coordinates                     Fractional coordinates (reciprocal lattice)
     0.028084092  0.000000000  0.000000000     0.500000000  0.000000000  0.000000000
     0.000000000  0.024455241 -0.000000000     0.000000000  0.090909091  0.000000000
     0.000000000  0.000000000  0.039943181     0.000000000  0.000000000  1.000000000

  Length of vectors
     0.028084092  0.024455241  0.039943181

  Shift w.r.t. Gamma in fractional coordinates (k-lattice)
     0.000000000  0.000000000  0.000000000

 Subroutine IBZKPT returns following result:

 Found     12 irreducible k-points:

 Following reciprocal coordinates:
            Coordinates               Weight
  0.000000  0.000000  0.000000      1.000000
  0.500000  0.000000  0.000000      1.000000
  0.000000  0.090909 -0.000000      2.000000
  0.500000  0.090909 -0.000000      2.000000
  0.000000  0.181818  0.000000      2.000000
  0.500000  0.181818  0.000000      2.000000
  0.000000  0.272727  0.000000      2.000000
  0.500000  0.272727  0.000000      2.000000
  0.000000  0.363636 -0.000000      2.000000
  0.500000  0.363636 -0.000000      2.000000
  0.000000  0.454545 -0.000000      2.000000
  0.500000  0.454545 -0.000000      2.000000

 Following cartesian coordinates:
            Coordinates               Weight
  0.000000  0.000000  0.000000      1.000000
  0.028084  0.000000  0.000000      1.000000
  0.000000  0.024455 -0.000000      2.000000
  0.028084  0.024455 -0.000000      2.000000
  0.000000  0.048910 -0.000000      2.000000
  0.028084  0.048910 -0.000000      2.000000
  0.000000  0.073366 -0.000000      2.000000
  0.028084  0.073366 -0.000000      2.000000
  0.000000  0.097821 -0.000000      2.000000
  0.028084  0.097821 -0.000000      2.000000
  0.000000  0.122276 -0.000000      2.000000
  0.028084  0.122276 -0.000000      2.000000

 SYSTEM =  unknown system
 POSCAR =  Ta8 Ni12 Te20

 Startparameter for this run:
   NWRITE =      1    write-flag & timer
   PREC   = accura    normal or accurate (medium, high low for compatibility)
   ISTART =      0    job   : 0-new  1-cont  2-samecut
   ICHARG =      2    charge: 1-file 2-atom 10-const
   ISPIN  =      1    spin polarized calculation?
   LNONCOLLINEAR =      F non collinear calculations
[...]
  free energy    TOTEN  =       920.72613153 eV

  energy without entropy =      920.72686568  energy(sigma->0) =      920.72649860

[...]

 eigenvalue-minimisations  :  2808
 total energy-change (2. order) :-0.9217043E+03  (-0.8909589E+03)
 number of electron     140.0000000 magnetization
 augmentation part      140.0000000 magnetization

[...]

 Broyden mixing:
  rms(total) = 0.38456E+01    rms(broyden)= 0.38456E+01
  rms(prec ) = 0.38960E+01
  weight for this iteration     100.00

[...]

 eigenvalues of (default mixing * dielectric matrix)
  average eigenvalue GAMMA=   2.0318
  2.0318

[...]

 eigenvalue-minimisations  :  3216
 total energy-change (2. order) :-0.1941700E-03  (-0.1575187E-03)
 number of electron     140.0000001 magnetization
 augmentation part       27.2445758 magnetization

[...]

 Broyden mixing:
  rms(total) = 0.91862E-02    rms(broyden)= 0.91861E-02
  rms(prec ) = 0.92153E-02
  weight for this iteration     100.00

 eigenvalues of (default mixing * dielectric matrix)
  average eigenvalue GAMMA=   2.4265
 10.0208  8.6511  7.3745  3.7554  3.7554  2.8639  1.6680  1.2260  1.2260  0.9908
  0.9908  0.8991  0.8991  0.7704  0.7704  0.4347  0.4797  0.5260  0.6330  0.5956

[...]

--------------------------------------- Iteration      1(  33)  ---------------------------------------

 eigenvalue-minimisations  :  1272
 total energy-change (2. order) : 0.4580679E-05  (-0.1115472E-05)
 number of electron     140.0000001 magnetization
 augmentation part       27.2381286 magnetization

 Free energy of the ion-electron system (eV)
  alpha Z        PSCENC =        66.99798409
  Ewald energy   TEWEN  =     29846.57578200
  -Hartree energ DENC   =    -38447.25930491
  -exchange      EXHF   =         0.00000000
  -V(xc)+E(xc)   XCENC  =      -355.99286615
  PAW double counting   =     13985.67904236   -13715.37052862
  entropy T*S    EENTRO =        -0.00000000
  eigenvalues    EBANDS =      -721.35182438
  atomic energy  EATOM  =      9221.34024497
  Solvation  Ediel_sol  =         0.00000000
  free energy    TOTEN  =      -119.38147066 eV

  energy without entropy =     -119.38147066  energy(sigma->0) =     -119.38147066

 average (electrostatic) potential at core
  the test charge radii are     1.2538  0.9791  1.1897
  (the norm of the test charge is              1.0000)
       1 -43.5969       2 -43.5976       3 -43.5972       4 -43.5973       5 -92.6728
       6 -92.6712       7 -92.6722       8 -92.6730       9 -92.3090      10 -92.3092
      11 -95.9029      12 -95.9028      13 -95.7663      14 -95.7662      15 -95.9035
      16 -95.9040      17 -95.7668      18 -95.7669      19 -95.7240      20 -95.7240

 E-fermi :  -1.1148     XC(G=0):  -3.3013     alpha+bet : -3.4031

 Fermi energy:        -1.1148155505

 k-point     1 :       0.0000    0.0000    0.0000
  band No.  band energies     occupation
      1     -14.0045      2.00000
      2     -13.7437      2.00000
      3     -13.5885      2.00000
      4     -13.1163      2.00000
      5     -13.1122      2.00000
      6     -12.8784      2.00000
      7     -12.8669      2.00000
      8     -12.8520      2.00000
      9     -12.7279      2.00000
     10     -12.5241      2.00000
     11      -7.1535      2.00000
     12      -6.9333      2.00000
     13      -6.7970      2.00000
     14      -6.7478      2.00000
     15      -6.4802      2.00000
     16      -6.4405      2.00000
     17      -6.3813      2.00000
     18      -5.8579      2.00000
     19      -5.6666      2.00000
     20      -5.3003      2.00000
     21      -5.2215      2.00000
     22      -4.9043      2.00000
     23      -4.8835      2.00000
     24      -4.8633      2.00000
     25      -4.8553      2.00000
     26      -4.7978      2.00000
     27      -4.7459      2.00000
     28      -4.6494      2.00000
     29      -4.4717      2.00000
     30      -4.4682      2.00000
     31      -4.1928      2.00000
     32      -4.0890      2.00000
     33      -4.0115      2.00000
     34      -3.8948      2.00000
     35      -3.7848      2.00000
     36      -3.7118      2.00000
     37      -3.6912      2.00000
     38      -3.6723      2.00000
     39      -3.4988      2.00000
     40      -3.4032      2.00000
     41      -3.3297      2.00000
     42      -3.2852      2.00000
     43      -3.2543      2.00000
     44      -3.1993      2.00000
     45      -3.1166      2.00000
     46      -2.9881      2.00000
     47      -2.9626      2.00000
     48      -2.9559      2.00000
     49      -2.8667      2.00000
     50      -2.7580      2.00000
     51      -2.7150      2.00000
     52      -2.5664      2.00000
     53      -2.5636      2.00000
     54      -2.4912      2.00000
     55      -2.4318      2.00000
     56      -2.4101      2.00000
     57      -2.3918      2.00000
     58      -2.3244      2.00000
     59      -2.2520      2.00000
     60      -2.2335      2.00000
[...]
     74      -0.2830      0.00000
     75      -0.0962      0.00000
     76       0.0029      0.00000
     77       0.1462      0.00000
     78       0.2468      0.00000
     79       0.3361      0.00000
     80       0.4549      0.00000
     81       0.5590      0.00000
     82       0.6136      0.00000
     83       1.0316      0.00000
     84       1.0344      0.00000
     85       1.2060      0.00000
     86       1.5349      0.00000
     87       2.0245      0.00000
     88       2.1300      0.00000

[...]

 k-point    12 :       0.5000    0.4545   -0.0000
  band No.  band energies     occupation
      1     -12.6407      2.00000
      2     -12.6401      2.00000
      3     -12.5291      2.00000
      4     -12.5287      2.00000
      5     -12.4431      2.00000
      6     -12.4426      2.00000
      7     -12.3212      2.00000
      8     -12.3209      2.00000
      9     -12.1777      2.00000
     10     -12.1775      2.00000
     11      -7.3302      2.00000
     12      -7.3301      2.00000
     13      -7.0960      2.00000
     14      -7.0958      2.00000
     15      -6.4796      2.00000
     16      -6.4796      2.00000
     17      -6.0838      2.00000
     18      -6.0833      2.00000
     19      -5.9050      2.00000
     20      -5.9045      2.00000
     21      -5.2327      2.00000
     22      -5.2321      2.00000
     23      -5.1325      2.00000
     24      -5.1320      2.00000
     25      -4.8328      2.00000
     26      -4.8322      2.00000
     27      -4.7509      2.00000
     28      -4.7504      2.00000
     29      -4.6208      2.00000
     30      -4.6203      2.00000
     31      -4.5238      2.00000
     32      -4.5235      2.00000
     33      -4.3981      2.00000
     34      -4.3980      2.00000
     35      -4.3628      2.00000
     36      -4.3626      2.00000
     37      -4.0844      2.00000
     38      -4.0839      2.00000
     39      -3.9980      2.00000
     40      -3.9977      2.00000
     41      -3.8263      2.00000
     42      -3.8259      2.00000
     43      -3.6108      2.00000
     44      -3.6108      2.00000
     45      -3.4562      2.00000
     46      -3.4555      2.00000
     47      -3.3279      2.00000
     48      -3.3277      2.00000
     49      -3.3050      2.00000
     50      -3.3043      2.00000
     51      -3.1054      2.00000
     52      -3.1050      2.00000
     53      -2.9565      2.00000
     54      -2.9559      2.00000
     55      -2.9013      2.00000
     56      -2.9004      2.00000
     57      -2.6332      2.00000
     58      -2.6329      2.00000
     59      -2.4973      2.00000
     60      -2.4970      2.00000
[...]
     74      -0.0990      0.00000
     75       0.1135      0.00000
     76       0.1140      0.00000
     77       0.2084      0.00000
     78       0.2085      0.00000
     79       0.6515      0.00000
     80       0.6515      0.00000
     81       0.8595      0.00000
     82       0.8596      0.00000
     83       0.9598      0.00000
     84       0.9602      0.00000
     85       1.0521      0.00000
     86       1.0522      0.00000
     87       1.7127      0.00000
     88       1.7128      0.00000

 soft charge-density along one line, spin component           1
         0         1         2         3         4         5         6         7         8         9
 total charge-density along one line

------------------------ aborting loop because EDIFF is reached ----------------------------------------

 total charge

# of ion       s       p       d       tot
    1        0.576   0.658   3.159   4.393
    2        0.576   0.658   3.159   4.393
    3        0.576   0.658   3.159   4.393
    4        0.576   0.658   3.159   4.393
    5        0.457   0.531   8.451   9.440
    6        0.457   0.531   8.451   9.440
    7        0.457   0.531   8.451   9.440
    8        0.457   0.531   8.452   9.440
    9        0.414   0.470   8.436   9.320
   10        0.414   0.470   8.436   9.320
   11        1.374   1.958   0.062   3.394
   12        1.374   1.958   0.062   3.394
   13        1.376   1.986   0.061   3.424
   14        1.376   1.986   0.061   3.424
   15        1.374   1.958   0.062   3.394
   16        1.374   1.958   0.062   3.394
   17        1.376   1.986   0.061   3.424
   18        1.376   1.986   0.061   3.424
   19        1.366   2.015   0.060   3.442
   20        1.366   2.015   0.060   3.442
tot         18.694  25.505  63.928 108.127

  FORCE on cell =-STRESS in cart. coord.  units (eV):
  Direction    XX          YY          ZZ          XY          YZ          ZX
  Alpha Z    66.99798    66.99798    66.99798
  Ewald   34419.20487 35129.83058-39702.47554    -0.00000     0.00022     0.12264
  Hartree 36198.04057 36981.03195-34732.05078     0.00000     0.00008     0.02324
  E(xc)    -658.22417  -657.43302  -660.37287     0.00000    -0.00000    -0.00177
  Local  -73064.48657-74574.84929 71959.76066     0.00000    -0.00027    -0.14022
  n-local  1021.12923  1014.06866  1029.05920    -0.00000     0.00001     0.01230
  augment   798.31257   814.82055   814.78715    -0.00000    -0.00000    -0.00524
  Kinetic  1219.03877  1225.63025  1224.33166     0.00001    -0.00001     0.00169
  Fock        0.00000     0.00000     0.00000     0.00000     0.00000     0.00000
  Total       0.01326     0.09766     0.03746     0.00000     0.00000     0.01263
  in kB       0.01283     0.09443     0.03622     0.00000     0.00000     0.01222

 VOLUME and BASIS-vectors are now :
  energy-cutoff  :      539.06
  volume of cell :     1656.92
      direct lattice vectors                 reciprocal lattice vectors
    17.803673428  0.000000000  0.000000000     0.056168184  0.000000000  0.000000000
     0.000000000  3.717366373  0.000000000     0.000000000  0.269007652 -0.000000000
     0.000000000  0.000000000 25.035562452     0.000000000  0.000000000  0.039943181

  length of vectors
    17.803673428  3.717366373 25.035562452     0.056168184  0.269007652  0.039943181

 FORCES acting on ions
    electron-ion (+dipol)            ewald-force                    non-local-force                 convergence-correction
   -.109E+03 0.129E-04 0.500E+02   0.108E+03 -.388E-04 -.495E+02   0.636E+00 -.266E-16 -.444E+00   0.266E-02 -.166E-08 -.177E-02
   -.109E+03 -.187E-04 -.500E+02   0.108E+03 0.388E-04 0.496E+02   0.636E+00 0.265E-16 0.443E+00   -.142E-02 -.287E-08 0.912E-03
   0.109E+03 0.129E-04 0.500E+02   -.108E+03 -.388E-04 -.496E+02   -.645E+00 -.266E-16 -.444E+00   -.142E-02 -.922E-09 -.971E-03
   0.109E+03 -.187E-04 -.500E+02   -.109E+03 0.388E-04 0.495E+02   -.652E+00 0.266E-16 0.444E+00   0.174E-03 -.186E-08 0.207E-02
   0.813E+02 0.295E-04 0.563E+03   -.815E+02 -.961E-04 -.562E+03   0.216E+00 -.408E-16 -.681E+00   0.811E-02 -.698E-08 0.271E-01
   0.812E+02 -.281E-04 -.563E+03   -.814E+02 0.961E-04 0.562E+03   0.218E+00 0.408E-16 0.680E+00   -.441E-02 0.501E-08 -.252E-01
   -.810E+02 0.295E-04 0.562E+03   0.813E+02 -.961E-04 -.562E+03   -.222E+00 -.411E-16 -.687E+00   -.108E-01 -.428E-08 0.242E-01
   -.809E+02 -.281E-04 -.563E+03   0.812E+02 0.961E-04 0.562E+03   -.225E+00 0.411E-16 0.685E+00   0.665E-02 0.117E-07 -.273E-01
   -.544E+00 -.350E-05 0.492E+02   0.526E+00 -.448E-04 -.488E+02   0.138E-01 -.269E-16 -.449E+00   0.756E-02 -.220E-08 0.133E-01
   -.384E+00 0.204E-04 -.488E+02   0.381E+00 0.448E-04 0.484E+02   0.953E-02 0.271E-16 0.453E+00   -.714E-02 0.232E-08 -.144E-01
   -.105E+03 0.764E-04 0.708E+03   0.107E+03 0.334E-04 -.716E+03   -.145E+01 0.459E-15 0.767E+01   0.636E-02 0.248E-08 0.115E-01
   -.105E+03 0.163E-04 -.708E+03   0.107E+03 -.334E-04 0.716E+03   -.145E+01 -.460E-15 -.767E+01   -.245E-02 -.111E-08 -.818E-02
   0.538E+02 0.716E-06 0.658E+03   -.550E+02 -.899E-05 -.664E+03   0.118E+01 0.330E-15 0.551E+01   0.164E-02 -.343E-09 0.117E-01
   0.537E+02 0.105E-03 -.658E+03   -.549E+02 0.899E-05 0.664E+03   0.119E+01 -.330E-15 -.551E+01   -.915E-03 0.140E-08 -.112E-01
   0.105E+03 0.764E-04 0.708E+03   -.107E+03 0.335E-04 -.716E+03   0.145E+01 0.460E-15 0.767E+01   -.341E-02 0.174E-08 0.997E-02
   0.106E+03 0.163E-04 -.708E+03   -.107E+03 -.334E-04 0.716E+03   0.145E+01 -.460E-15 -.767E+01   -.819E-03 -.214E-08 -.947E-02
   -.539E+02 0.714E-06 0.659E+03   0.551E+02 -.898E-05 -.664E+03   -.118E+01 0.331E-15 0.552E+01   -.117E-02 -.417E-09 0.838E-02
   -.539E+02 0.105E-03 -.659E+03   0.551E+02 0.899E-05 0.664E+03   -.118E+01 -.330E-15 -.552E+01   0.326E-03 0.157E-08 -.142E-01
   -.127E+00 0.166E-04 0.600E+03   0.131E+00 -.293E-04 -.605E+03   -.377E-02 0.270E-15 0.450E+01   -.333E-02 -.174E-09 0.994E-02
   -.176E+00 0.841E-04 -.600E+03   0.170E+00 0.293E-04 0.604E+03   0.221E-02 -.270E-15 -.450E+01   0.365E-02 0.439E-09 -.710E-02
   -.412E-02 0.505E-03 -.549E-02   -.799E-13 0.631E-13 -.227E-12   -.156E-01 0.215E-18 0.358E-02   -.125E-03 0.168E-08 -.658E-03

 POSITION                                       TOTAL-FORCE (eV/Angst)
     15.51898      0.92934     12.44182        -0.003101     -0.000000     -0.001802
      6.61685      2.78802     12.59408        -0.003894     -0.000000     -0.000812
      2.29925      0.92934     12.44144         0.003015      0.000000      0.001931
     11.20189      2.78802     12.59429        -0.003725     -0.000000     -0.000922
     12.97833      0.92934     11.77745        -0.002826     -0.000000     -0.002168
      4.07598      2.78802     13.25903        -0.001859      0.000000      0.000310
      4.83946      0.92934     11.77709         0.001302     -0.000000     -0.001976
     13.74157      2.78802     13.25919         0.001554      0.000000      0.003122
      8.90704      0.92934     12.37051         0.004049     -0.000000     -0.002913
      0.00563      2.78802     12.66458         0.000940      0.000000      0.003535
     14.31190      2.78802     10.58080         0.003236      0.000000      0.004292
      5.40956      0.92934     14.45539         0.003870     -0.000000     -0.005259
     10.69318      0.92934     10.56251         0.004495     -0.000000     -0.001885
      1.79052      2.78802     14.47337         0.005883      0.000000      0.001212
      3.50692      2.78802     10.58040        -0.003079      0.000000      0.005027
     12.40877      0.92934     14.45569        -0.002549     -0.000000     -0.004827
      7.12347      0.92934     10.56106        -0.003132      0.000000      0.002513
     16.02572      2.78802     14.47455        -0.002734     -0.000000     -0.000855
      0.00715      0.92934     10.89807        -0.002346      0.000000      0.008926
      8.90899      2.78802     14.13663         0.000900     -0.000000     -0.007446
    total drift:                               -0.019868      0.000505     -0.002568

  FREE ENERGIE OF THE ION-ELECTRON SYSTEM (eV)
  free  energy   TOTEN  =      -119.38147066 eV

  energy  without entropy=     -119.38147066  energy(sigma->0) =     -119.38147066

 reached required accuracy - stopping structural energy minimisation

 total charge

# of ion       s       p       d       tot
    1        0.576   0.658   3.159   4.393
    2        0.576   0.658   3.159   4.393
    3        0.576   0.658   3.159   4.393
    4        0.576   0.658   3.159   4.393
    5        0.457   0.531   8.451   9.440
    6        0.457   0.531   8.451   9.440
    7        0.457   0.531   8.451   9.440
    8        0.457   0.531   8.452   9.440
    9        0.414   0.470   8.436   9.320
   10        0.414   0.470   8.436   9.320
   11        1.374   1.958   0.062   3.394
   12        1.374   1.958   0.062   3.394
   13        1.376   1.986   0.061   3.424
   14        1.376   1.986   0.061   3.424
   15        1.374   1.958   0.062   3.394
   16        1.374   1.958   0.062   3.394
   17        1.376   1.986   0.061   3.424
   18        1.376   1.986   0.061   3.424
   19        1.366   2.015   0.060   3.442
   20        1.366   2.015   0.060   3.442
tot         18.694  25.505  63.928 108.127