 vasp.6.4.2 20Jul23 (build Nov 14 2023 12:59:38) complex

 executed on             LinuxIFC date 2024.06.24  09:24:29

 INCAR:
   ENCUT = 303.223
   ALGO = Normal
   NELM = 200
   NELMIN = 6
   NELMDL = -12
   EDIFF = 1.0E-6
   AMIX = 0.1
   BMIX = 0.0001
   NBANDS = 140
   PREC = Accurate
   IVDW = 0
   ISPIN = 1
   ADDGRID = .TRUE.
   LASPH = .TRUE.
   LREAL = Auto
   NSW = 0
   EDIFFG = -0.010
   IBRION = 2
   ISIF = 3
   POTIM = 0.5
   STRESSTYPE = 2
   ISMEAR = 0
   SIGMA = 0.03
   LORBIT = 10
   NEDOS = 6001
   NWRITE = 1
   LWAVE = .FALSE.
   LCHARG = .FALSE.
   NCORE = 4
   LPLANE = .TRUE.

 POTCAR:    PAW_PBE Ta 17Jan2003
 POTCAR:    PAW_PBE Ni 02Aug2007
 POTCAR:    PAW_PBE Te 08Apr2002
 POTCAR:    PAW_PBE Ta 17Jan2003

 POTCAR:    PAW_PBE Ni 02Aug2007

 POTCAR:    PAW_PBE Te 08Apr2002

 Optimization of the real space projectors (new method)

 maximal supplied QI-value         = 12.85
 optimisation between [QCUT,QGAM] = [  8.87, 17.73] = [ 22.01, 88.06] Ry
 Optimized for a Real-space Cutoff    1.95 Angstroem

   l    n(q)    QCUT    max X(q) W(low)/X(q) W(high)/X(q)  e(spline)
   2      9     8.867    62.315    0.12E-03    0.33E-04    0.12E-05
   2      9     8.867    52.185    0.13E-03    0.33E-04    0.12E-05
   0     10     8.867   103.837    0.13E-04    0.28E-04    0.12E-06
   0     10     8.867    59.728    0.12E-04    0.25E-04    0.11E-06
   1     10     8.867    13.958    0.44E-04    0.17E-05    0.15E-06
   1     10     8.867     8.441    0.31E-04    0.26E-05    0.11E-06
 Optimization of the real space projectors (new method)

[...]

   l    n(q)    QCUT    max X(q) W(low)/X(q) W(high)/X(q)  e(spline)
   2      7     8.776    60.317    0.16E-03    0.44E-03    0.23E-06
   2      7     8.776    55.921    0.17E-03    0.44E-03    0.23E-06
   0      8     8.776    51.690    0.22E-03    0.25E-03    0.51E-07
   0      8     8.776    30.015    0.20E-03    0.23E-03    0.47E-07
   1      8     8.776    18.849    0.17E-03    0.19E-03    0.10E-06
   1      8     8.776    14.624    0.15E-03    0.15E-03    0.88E-07
 Optimization of the real space projectors (new method)

 maximal supplied QI-value         = 16.25
 optimisation between [QCUT,QGAM] = [  8.78, 17.71] = [ 21.57, 87.87] Ry
 Optimized for a Real-space Cutoff    1.49 Angstroem

   l    n(q)    QCUT    max X(q) W(low)/X(q) W(high)/X(q)  e(spline)
   0      8     8.776   224.858    0.15E-03    0.19E-04    0.75E-07
   0      8     8.776   205.313    0.15E-03    0.20E-04    0.76E-07
   1      7     8.776   119.695    0.23E-03    0.47E-03    0.95E-07
   1      7     8.776    84.282    0.23E-03    0.46E-03    0.93E-07
   2      7     8.776     5.599    0.87E-04    0.38E-04    0.37E-07
  PAW_PBE Ta 17Jan2003                  :
  PAW_PBE Ni 02Aug2007                  :
  PAW_PBE Te 08Apr2002                  :

 POSCAR: Ta8 Ni12 Te20
  positions in direct lattice
  velocities in cartesian coordinates
 exchange correlation table for  LEXCH =        8
   RHO(1)=    0.500       N(1)  =     2000
   RHO(2)=  100.500       N(2)  =     4000

 ion  position               nearest neighbor table
   1  0.872  0.250  0.497-   5 2.63   8 2.70   8 2.70  19 2.76  18 2.80  18 2.80  11 2.89  11 2.89
                            10 2.96  10 2.96
   2  0.372  0.750  0.503-   6 2.63   7 2.70   7 2.70  20 2.76  17 2.80  17 2.80  12 2.89  12 2.89
                             9 2.96   9 2.96
   3  0.129  0.250  0.497-   7 2.63   6 2.70   6 2.70  19 2.76  14 2.80  14 2.80  15 2.89  15 2.89
                            10 2.96  10 2.96
   4  0.629  0.750  0.503-   8 2.63   5 2.70   5 2.70  20 2.76  13 2.80  13 2.80  16 2.89  16 2.89
                             9 2.96   9 2.96
   5  0.729  0.250  0.470-   8 2.50   8 2.50  11 2.58  11 2.58  13 2.59   1 2.63   4 2.70   4 2.70
                            16 2.74
   6  0.229  0.750  0.530-   7 2.50   7 2.50  12 2.58  12 2.58  14 2.59   2 2.63   3 2.70   3 2.70
                            15 2.74
   7  0.272  0.250  0.470-   6 2.50   6 2.50  15 2.58  15 2.58  17 2.59   3 2.63   2 2.70   2 2.70
                            12 2.74
   8  0.772  0.750  0.530-   5 2.50   5 2.50  16 2.58  16 2.58  18 2.59   4 2.63   1 2.70   1 2.70
                            11 2.74
   9  0.500  0.250  0.494-  17 2.54  13 2.54  20 2.56  20 2.56   2 2.96   2 2.96   4 2.96   4 2.96

  10  0.000  0.750  0.506-  18 2.54  14 2.54  19 2.56  19 2.56   1 2.96   1 2.96   3 2.96   3 2.96

  11  0.804  0.750  0.423-   5 2.58   5 2.58   8 2.74   1 2.89   1 2.89
  12  0.304  0.250  0.577-   6 2.58   6 2.58   7 2.74   2 2.89   2 2.89
  13  0.601  0.250  0.422-   9 2.54   5 2.59   4 2.80   4 2.80  17 3.57
  14  0.101  0.750  0.578-  10 2.54   6 2.59   3 2.80   3 2.80  18 3.57
  15  0.197  0.750  0.423-   7 2.58   7 2.58   6 2.74   3 2.89   3 2.89
  16  0.697  0.250  0.577-   8 2.58   8 2.58   5 2.74   4 2.89   4 2.89
  17  0.400  0.250  0.422-   9 2.54   7 2.59   2 2.80   2 2.80  13 3.57
  18  0.900  0.750  0.578-  10 2.54   8 2.59   1 2.80   1 2.80  14 3.57
  19  0.000  0.250  0.435-  10 2.56  10 2.56   1 2.76   3 2.76
  20  0.500  0.750  0.565-   9 2.56   9 2.56   2 2.76   4 2.76

  LATTYP: Found a simple orthorhombic cell.
 ALAT       =     3.7173663731
 B/A-ratio  =     4.7893243875
 C/A-ratio  =     6.7347578740

  Lattice vectors:

 A1 = (   0.0000000000,  -3.7173663731,   0.0000000000)
 A2 = (  17.8036734280,   0.0000000000,   0.0000000000)
 A3 = (   0.0000000000,   0.0000000000,  25.0355624519)

Analysis of symmetry for initial positions (statically):
 Subroutine PRICEL returns:
 Original cell was already a primitive cell.

 Routine SETGRP: Setting up the symmetry group for a
 simple orthorhombic supercell.

 Subroutine GETGRP returns: Found  2 space group operations
 (whereof  1 operations were pure point group operations)
 out of a pool of  8 trial point group operations.

The static configuration has the point symmetry C_1 .
 The point group associated with its full space group is C_1h.

Analysis of symmetry for dynamics (positions and initial velocities):
 Subroutine PRICEL returns:
 Original cell was already a primitive cell.

 Routine SETGRP: Setting up the symmetry group for a
 simple orthorhombic supercell.

 Subroutine GETGRP returns: Found  2 space group operations
 (whereof  1 operations were pure point group operations)
 out of a pool of  8 trial point group operations.

The dynamic configuration has the point symmetry C_1 .
 The point group associated with its full space group is C_1h.

 Subroutine INISYM returns: Found  2 space group operations
 (whereof  1 operations are pure point group operations),
 and found     1 'primitive' translations

                                     Primitive cell

  volume of cell :    1656.9230

  direct lattice vectors                    reciprocal lattice vectors
    17.803673428  0.000000000  0.000000000     0.056168184  0.000000000  0.000000000
     0.000000000  3.717366373  0.000000000     0.000000000  0.269007652 -0.000000000
     0.000000000  0.000000000 25.035562452     0.000000000  0.000000000  0.039943181

  length of vectors
    17.803673428  3.717366373 25.035562452     0.056168184  0.269007652  0.039943181

  position of ions in fractional coordinates (direct lattice)
     0.871673196  0.249999970  0.496965903
     0.371656673  0.749999881  0.503047488
     0.129144954  0.249999970  0.496950766
     0.629189849  0.749999881  0.503056190
     0.728969198  0.249999970  0.470428878
     0.228940622  0.749999881  0.529607779
     0.271823733  0.249999970  0.470414353
     0.771838868  0.749999881  0.529614355
     0.500292249  0.249999970  0.494117339
     0.000316075  0.749999881  0.505863449
     0.803873609  0.749999881  0.422630908
     0.303845329  0.249999970  0.577394114
     0.600616500  0.249999970  0.421900216
     0.100570225  0.749999881  0.578112336
     0.196977383  0.749999881  0.422614921
     0.696977929  0.249999970  0.577406064
     0.400112091  0.249999970  0.421842527
     0.900135743  0.749999881  0.578159661
     0.000401553  0.249999970  0.435303419
     0.500401798  0.749999881  0.564661933

  ion indices of the primitive-cell ions
   primitive index   ion index
                 1           1
                 2           2
                 3           3
                 4           4
                 5           5
                 6           6
                 7           7
                 8           8
                 9           9
                10          10
                11          11
                12          12
                13          13
                14          14
                15          15
                16          16
                17          17
                18          18
                19          19
                20          20

 KPOINTS: Gamma centered

Automatic generation of k-mesh.
 Grid dimensions read from file:
 generate k-points for:    4   22    1

 Generating k-lattice:

  Cartesian coordinates                     Fractional coordinates (reciprocal lattice)
     0.014042046  0.000000000  0.000000000     0.250000000  0.000000000  0.000000000
     0.000000000  0.012227621 -0.000000000     0.000000000  0.045454545  0.000000000
     0.000000000  0.000000000  0.039943181     0.000000000  0.000000000  1.000000000

  Length of vectors
     0.014042046  0.012227621  0.039943181

  Shift w.r.t. Gamma in fractional coordinates (k-lattice)
     0.000000000  0.000000000  0.000000000

 Subroutine IBZKPT returns following result:

 Found     36 irreducible k-points:

 Following reciprocal coordinates:
            Coordinates               Weight
  0.000000  0.000000  0.000000      1.000000
  0.250000  0.000000  0.000000      2.000000
  0.500000  0.000000  0.000000      1.000000
  0.000000  0.045455 -0.000000      2.000000
  0.250000  0.045455 -0.000000      4.000000
  0.500000  0.045455 -0.000000      2.000000
  0.000000  0.090909 -0.000000      2.000000
  0.250000  0.090909 -0.000000      4.000000
  0.500000  0.090909 -0.000000      2.000000
  0.000000  0.136364 -0.000000      2.000000
  0.250000  0.136364 -0.000000      4.000000
  0.500000  0.136364 -0.000000      2.000000
  0.000000  0.181818  0.000000      2.000000
  0.250000  0.181818  0.000000      4.000000
  0.500000  0.181818  0.000000      2.000000
  0.000000  0.227273 -0.000000      2.000000
  0.250000  0.227273 -0.000000      4.000000
  0.500000  0.227273 -0.000000      2.000000
  0.000000  0.272727  0.000000      2.000000
  0.250000  0.272727  0.000000      4.000000
  0.500000  0.272727  0.000000      2.000000
  0.000000  0.318182 -0.000000      2.000000
  0.250000  0.318182 -0.000000      4.000000
  0.500000  0.318182 -0.000000      2.000000
  0.000000  0.363636 -0.000000      2.000000
  0.250000  0.363636 -0.000000      4.000000
  0.500000  0.363636 -0.000000      2.000000
  0.000000  0.409091 -0.000000      2.000000
  0.250000  0.409091 -0.000000      4.000000
  0.500000  0.409091 -0.000000      2.000000
  0.000000  0.454545 -0.000000      2.000000
  0.250000  0.454545 -0.000000      4.000000
  0.500000  0.454545 -0.000000      2.000000
  0.000000  0.500000  0.000000      1.000000
  0.250000  0.500000  0.000000      2.000000
[...]
  free energy    TOTEN  =       660.87104577 eV

  energy without entropy =      660.87896900  energy(sigma->0) =      660.87500739

[...]

 eigenvalue-minimisations  : 13064
 total energy-change (2. order) :-0.7117164E+03  (-0.6735458E+03)
 number of electron     140.0000000 magnetization
 augmentation part      140.0000000 magnetization

[...]

 Broyden mixing:
  rms(total) = 0.39323E+01    rms(broyden)= 0.39318E+01
  rms(prec ) = 0.39808E+01
  weight for this iteration     100.00

[...]

 eigenvalues of (default mixing * dielectric matrix)
  average eigenvalue GAMMA=   2.0612
  2.0612

[...]

 eigenvalue-minimisations  :  9416
 total energy-change (2. order) :-0.1452905E-05  (-0.2449773E-06)
 number of electron     140.0000003 magnetization
 augmentation part       27.2272633 magnetization

[...]

 Broyden mixing:
  rms(total) = 0.29337E-02    rms(broyden)= 0.29314E-02
  rms(prec ) = 0.29410E-02
  weight for this iteration     100.00

 eigenvalues of (default mixing * dielectric matrix)
  average eigenvalue GAMMA=   2.5645
 14.4482 10.1510  8.3120  5.8204  4.7713  3.2318  3.2318  1.8985  1.8985  1.6252
  1.3280  1.3280  1.0776  1.0315  1.0315  0.8361  0.8361  0.8443  0.8443  0.7334
  0.7334  0.4280  0.4779  0.5009  0.6604  0.5968  0.5643

[...]

--------------------------------------- Iteration      1(  40)  ---------------------------------------

 eigenvalue-minimisations  :  7736
 total energy-change (2. order) : 0.8419556E-07  (-0.5222082E-07)
 number of electron     140.0000003 magnetization
 augmentation part       27.2234082 magnetization

 Free energy of the ion-electron system (eV)
  alpha Z        PSCENC =        66.99798409
  Ewald energy   TEWEN  =     29846.57578200
  -Hartree energ DENC   =    -38445.98005135
  -exchange      EXHF   =         0.00000000
  -V(xc)+E(xc)   XCENC  =      -355.98913288
  PAW double counting   =     14070.79306913   -13801.53230525
  entropy T*S    EENTRO =        -0.00012516
  eigenvalues    EBANDS =      -721.39564189
  atomic energy  EATOM  =      9221.11089956
  Solvation  Ediel_sol  =         0.00000000
  free energy    TOTEN  =      -119.41952175 eV

  energy without entropy =     -119.41939659  energy(sigma->0) =     -119.41945917

 average (electrostatic) potential at core
  the test charge radii are     1.2538  0.9791  1.1897
  (the norm of the test charge is              1.0000)
       1 -43.6003       2 -43.6001       3 -43.6001       4 -43.6003       5 -92.6704
       6 -92.6690       7 -92.6699       8 -92.6705       9 -92.3077      10 -92.3081
      11 -95.9012      12 -95.9005      13 -95.7638      14 -95.7638      15 -95.9014
      16 -95.9020      17 -95.7642      18 -95.7648      19 -95.7235      20 -95.7233

 E-fermi :  -1.1232     XC(G=0):  -3.3070     alpha+bet : -3.4031

 Fermi energy:        -1.1232364483

 k-point     1 :       0.0000    0.0000    0.0000
  band No.  band energies     occupation
      1     -14.0072      2.00000
      2     -13.7463      2.00000
      3     -13.5910      2.00000
      4     -13.1178      2.00000
      5     -13.1140      2.00000
      6     -12.8814      2.00000
      7     -12.8683      2.00000
      8     -12.8531      2.00000
      9     -12.7303      2.00000
     10     -12.5251      2.00000
     11      -7.1576      2.00000
     12      -6.9377      2.00000
     13      -6.7995      2.00000
     14      -6.7504      2.00000
     15      -6.4829      2.00000
     16      -6.4429      2.00000
     17      -6.3845      2.00000
     18      -5.8600      2.00000
     19      -5.6676      2.00000
     20      -5.3012      2.00000
     21      -5.2222      2.00000
     22      -4.9044      2.00000
     23      -4.8828      2.00000
     24      -4.8626      2.00000
     25      -4.8549      2.00000
     26      -4.8000      2.00000
     27      -4.7466      2.00000
     28      -4.6505      2.00000
     29      -4.4716      2.00000
     30      -4.4680      2.00000
     31      -4.1939      2.00000
     32      -4.0911      2.00000
     33      -4.0119      2.00000
     34      -3.8950      2.00000
     35      -3.7848      2.00000
     36      -3.7115      2.00000
     37      -3.6895      2.00000
     38      -3.6714      2.00000
     39      -3.4981      2.00000
     40      -3.4017      2.00000
     41      -3.3278      2.00000
     42      -3.2837      2.00000
     43      -3.2544      2.00000
     44      -3.1980      2.00000
     45      -3.1155      2.00000
     46      -2.9868      2.00000
     47      -2.9607      2.00000
     48      -2.9554      2.00000
     49      -2.8666      2.00000
     50      -2.7569      2.00000
     51      -2.7145      2.00000
     52      -2.5667      2.00000
     53      -2.5624      2.00000
     54      -2.4931      2.00000
     55      -2.4289      2.00000
     56      -2.4119      2.00000
     57      -2.3889      2.00000
     58      -2.3235      2.00000
     59      -2.2499      2.00000
     60      -2.2324      2.00000
[...]
    126       5.4100      0.00000
    127       5.5054      0.00000
    128       5.6976      0.00000
    129       5.7069      0.00000
    130       5.7470      0.00000
    131       5.7612      0.00000
    132       5.8438      0.00000
    133       5.9495      0.00000
    134       5.9840      0.00000
    135       6.0223      0.00000
    136       6.1807      0.00000
    137       6.2073      0.00000
    138       6.3191      0.00000
    139       6.4058      0.00000
    140       6.4576      0.00000

[...]

 k-point    36 :       0.5000    0.5000    0.0000
  band No.  band energies     occupation
      1     -12.6004      2.00000
      2     -12.5996      2.00000
      3     -12.4693      2.00000
      4     -12.4693      2.00000
      5     -12.4605      2.00000
      6     -12.4603      2.00000
      7     -12.3291      2.00000
      8     -12.3289      2.00000
      9     -12.1673      2.00000
     10     -12.1673      2.00000
     11      -7.3825      2.00000
     12      -7.3824      2.00000
     13      -7.1479      2.00000
     14      -7.1476      2.00000
     15      -6.5192      2.00000
     16      -6.5192      2.00000
     17      -6.0763      2.00000
     18      -6.0759      2.00000
     19      -5.9465      2.00000
     20      -5.9461      2.00000
     21      -5.1472      2.00000
     22      -5.1466      2.00000
     23      -5.1444      2.00000
     24      -5.1443      2.00000
     25      -4.8575      2.00000
     26      -4.8573      2.00000
     27      -4.6669      2.00000
     28      -4.6664      2.00000
     29      -4.6108      2.00000
     30      -4.6101      2.00000
     31      -4.5495      2.00000
     32      -4.5489      2.00000
     33      -4.4715      2.00000
     34      -4.4713      2.00000
     35      -4.3447      2.00000
     36      -4.3445      2.00000
     37      -4.0422      2.00000
     38      -4.0416      2.00000
     39      -4.0104      2.00000
     40      -4.0104      2.00000
     41      -3.8422      2.00000
     42      -3.8420      2.00000
     43      -3.6072      2.00000
     44      -3.6072      2.00000
     45      -3.4397      2.00000
     46      -3.4396      2.00000
     47      -3.3436      2.00000
     48      -3.3436      2.00000
     49      -3.3199      2.00000
     50      -3.3199      2.00000
     51      -3.0476      2.00000
     52      -3.0475      2.00000
     53      -3.0168      2.00000
     54      -3.0165      2.00000
     55      -2.9189      2.00000
     56      -2.9181      2.00000
     57      -2.6341      2.00000
     58      -2.6338      2.00000
     59      -2.4775      2.00000
     60      -2.4771      2.00000
[...]
    126       6.0498      0.00000
    127       6.1776      0.00000
    128       6.1777      0.00000
    129       6.2152      0.00000
    130       6.2155      0.00000
    131       6.2836      0.00000
    132       6.2837      0.00000
    133       6.5378      0.00000
    134       6.5379      0.00000
    135       6.7579      0.00000
    136       6.7580      0.00000
    137       6.7605      0.00000
    138       6.7606      0.00000
    139       6.9964      0.00000
    140       6.9965      0.00000

 soft charge-density along one line, spin component           1
         0         1         2         3         4         5         6         7         8         9
 total charge-density along one line

------------------------ aborting loop because EDIFF is reached ----------------------------------------

 total charge

# of ion       s       p       d       tot
    1        0.576   0.659   3.204   4.439
    2        0.576   0.659   3.204   4.439
    3        0.576   0.659   3.204   4.439
    4        0.576   0.659   3.204   4.439
    5        0.458   0.532   8.436   9.426
    6        0.458   0.531   8.436   9.426
    7        0.458   0.532   8.436   9.426
    8        0.458   0.532   8.436   9.426
    9        0.415   0.470   8.421   9.306
   10        0.415   0.470   8.421   9.306
   11        1.374   1.958   0.062   3.395
   12        1.374   1.958   0.062   3.395
   13        1.376   1.986   0.061   3.424
   14        1.376   1.986   0.061   3.424
   15        1.374   1.958   0.062   3.395
   16        1.374   1.958   0.062   3.395
   17        1.376   1.986   0.061   3.424
   18        1.376   1.986   0.061   3.424
   19        1.367   2.015   0.060   3.442
   20        1.367   2.015   0.060   3.442
tot         18.703  25.510  64.018 108.231

  FORCE on cell =-STRESS in cart. coord.  units (eV):
  Direction    XX          YY          ZZ          XY          YZ          ZX
  Alpha Z    66.99798    66.99798    66.99798
  Ewald   34419.20487 35129.83058-39702.47554    -0.00000     0.00022     0.12264
  Hartree 36197.66256 36980.53613-34732.18461    -0.00000     0.00008     0.01892
  E(xc)    -658.21928  -657.42324  -660.37666     0.00000    -0.00000    -0.00172
  Local  -73063.96204-74574.12789 71960.08127     0.00000    -0.00027    -0.13622
  n-local  1021.31370  1014.29989  1029.29939    -0.01846    -0.00008     0.01609
  augment   798.38881   814.86823   814.79943     0.00000     0.00000    -0.00493
  Kinetic  1218.38643  1224.85561  1223.75834     0.03749     0.00009     0.00215
  Fock        0.00000     0.00000     0.00000     0.00000     0.00000     0.00000
  Total      -0.22697    -0.16271    -0.10041     0.00000    -0.00000     0.01694
  in kB      -0.21947    -0.15734    -0.09709     0.00000    -0.00000     0.01638

 VOLUME and BASIS-vectors are now :
  energy-cutoff  :      303.22
  volume of cell :     1656.92
      direct lattice vectors                 reciprocal lattice vectors
    17.803673428  0.000000000  0.000000000     0.056168184  0.000000000  0.000000000
     0.000000000  3.717366373  0.000000000     0.000000000  0.269007652 -0.000000000
     0.000000000  0.000000000 25.035562452     0.000000000  0.000000000  0.039943181

  length of vectors
    17.803673428  3.717366373 25.035562452     0.056168184  0.269007652  0.039943181

 FORCES acting on ions
    electron-ion (+dipol)            ewald-force                    non-local-force                 convergence-correction
   -.109E+03 0.129E-04 0.500E+02   0.108E+03 -.388E-04 -.495E+02   0.637E+00 -.261E-16 -.438E+00   -.139E-02 -.233E-09 -.227E-03
   -.109E+03 -.187E-04 -.500E+02   0.108E+03 0.388E-04 0.496E+02   0.635E+00 0.261E-16 0.438E+00   -.115E-02 -.105E-09 0.232E-03
   0.109E+03 0.129E-04 0.500E+02   -.108E+03 -.388E-04 -.496E+02   -.646E+00 -.262E-16 -.442E+00   0.115E-02 -.221E-09 -.171E-03
   0.109E+03 -.187E-04 -.500E+02   -.109E+03 0.388E-04 0.495E+02   -.651E+00 0.263E-16 0.443E+00   0.139E-02 -.847E-10 0.342E-03
   0.813E+02 0.295E-04 0.563E+03   -.815E+02 -.961E-04 -.562E+03   0.225E+00 -.398E-16 -.663E+00   0.270E-02 -.962E-09 0.940E-02
   0.812E+02 -.277E-04 -.563E+03   -.814E+02 0.961E-04 0.562E+03   0.226E+00 0.398E-16 0.663E+00   0.352E-02 -.420E-09 -.824E-02
   -.810E+02 0.295E-04 0.562E+03   0.813E+02 -.961E-04 -.562E+03   -.230E+00 -.399E-16 -.667E+00   -.253E-02 -.919E-09 0.830E-02
   -.809E+02 -.277E-04 -.563E+03   0.812E+02 0.961E-04 0.562E+03   -.232E+00 0.399E-16 0.665E+00   -.377E-02 -.740E-10 -.914E-02
   -.539E+00 -.351E-05 0.492E+02   0.526E+00 -.448E-04 -.488E+02   0.173E-01 -.273E-16 -.455E+00   0.158E-02 0.722E-10 0.177E-02
   -.388E+00 0.208E-04 -.488E+02   0.381E+00 0.448E-04 0.484E+02   0.114E-01 0.274E-16 0.458E+00   -.152E-02 -.276E-08 -.151E-02
   -.105E+03 0.764E-04 0.708E+03   0.107E+03 0.334E-04 -.716E+03   -.146E+01 0.459E-15 0.766E+01   -.103E-02 0.437E-09 0.323E-02
   -.105E+03 0.163E-04 -.708E+03   0.107E+03 -.334E-04 0.716E+03   -.146E+01 -.459E-15 -.767E+01   -.740E-03 -.425E-09 -.281E-02
   0.538E+02 0.711E-06 0.658E+03   -.550E+02 -.899E-05 -.664E+03   0.118E+01 0.330E-15 0.551E+01   0.443E-03 0.121E-10 0.244E-02
   0.537E+02 0.105E-03 -.658E+03   -.549E+02 0.899E-05 0.664E+03   0.119E+01 -.330E-15 -.551E+01   0.480E-04 -.919E-09 -.178E-02
   0.105E+03 0.763E-04 0.708E+03   -.107E+03 0.335E-04 -.716E+03   0.145E+01 0.459E-15 0.767E+01   0.110E-02 0.437E-09 0.273E-02
   0.106E+03 0.163E-04 -.708E+03   -.107E+03 -.334E-04 0.716E+03   0.145E+01 -.459E-15 -.767E+01   0.669E-03 -.473E-09 -.332E-02
   -.539E+02 0.710E-06 0.659E+03   0.551E+02 -.898E-05 -.664E+03   -.118E+01 0.331E-15 0.552E+01   -.102E-03 0.676E-11 0.196E-02
   -.539E+02 0.105E-03 -.659E+03   0.551E+02 0.899E-05 0.664E+03   -.118E+01 -.331E-15 -.552E+01   -.428E-03 -.904E-09 -.224E-02
   -.130E+00 0.166E-04 0.600E+03   0.131E+00 -.293E-04 -.605E+03   -.122E-02 0.269E-15 0.449E+01   -.582E-03 -.127E-09 0.163E-02
   -.173E+00 0.841E-04 -.600E+03   0.170E+00 0.293E-04 0.604E+03   0.264E-02 -.269E-15 -.449E+01   0.602E-03 0.288E-09 -.162E-02
   -.349E-02 0.506E-03 -.694E-02   -.799E-13 0.631E-13 -.227E-12   -.679E-02 0.441E-18 0.722E-02   -.455E-04 -.738E-08 0.975E-03

 POSITION                                       TOTAL-FORCE (eV/Angst)
     15.51898      0.92934     12.44182        -0.007468      0.000000      0.008650
      6.61685      2.78802     12.59408        -0.010696     -0.000000     -0.010704
      2.29925      0.92934     12.44144         0.007475      0.000000      0.007953
     11.20189      2.78802     12.59429         0.002630     -0.000000     -0.007113
     12.97833      0.92934     11.77745        -0.002084      0.000000      0.007178
      4.07598      2.78802     13.25903        -0.002623     -0.000000     -0.009032
      4.83946      0.92934     11.77709         0.000732      0.000000      0.008850
     13.74157      2.78802     13.25919         0.001144     -0.000000     -0.009362
      8.90704      0.92934     12.37051         0.006772     -0.000000     -0.004762
      0.00563      2.78802     12.66458         0.003003      0.000000      0.004597
     14.31190      2.78802     10.58080        -0.006684     -0.000000     -0.000158
      5.40956      0.92934     14.45539        -0.004159     -0.000000     -0.000046
     10.69318      0.92934     10.56251         0.004088     -0.000000     -0.003967
      1.79052      2.78802     14.47337         0.007709      0.000000      0.003069
      3.50692      2.78802     10.58040        -0.000844      0.000000      0.000893
     12.40877      0.92934     14.45569        -0.000169     -0.000000     -0.000750
      7.12347      0.92934     10.56106         0.000399      0.000000      0.003017
     16.02572      2.78802     14.47455         0.000826     -0.000000     -0.002177
      0.00715      0.92934     10.89807        -0.000992      0.000000      0.006377
      8.90899      2.78802     14.13663         0.000941     -0.000000     -0.002515
    total drift:                               -0.010319      0.000506      0.001256

  FREE ENERGIE OF THE ION-ELECTRON SYSTEM (eV)
  free  energy   TOTEN  =      -119.41952175 eV

  energy  without entropy=     -119.41939659  energy(sigma->0) =     -119.41945917

 total charge

# of ion       s       p       d       tot
    1        0.576   0.659   3.204   4.439
    2        0.576   0.659   3.204   4.439
    3        0.576   0.659   3.204   4.439
    4        0.576   0.659   3.204   4.439
    5        0.458   0.532   8.436   9.426
    6        0.458   0.531   8.436   9.426
    7        0.458   0.532   8.436   9.426
    8        0.458   0.532   8.436   9.426
    9        0.415   0.470   8.421   9.306
   10        0.415   0.470   8.421   9.306
   11        1.374   1.958   0.062   3.395
   12        1.374   1.958   0.062   3.395
   13        1.376   1.986   0.061   3.424
   14        1.376   1.986   0.061   3.424
   15        1.374   1.958   0.062   3.395
   16        1.374   1.958   0.062   3.395
   17        1.376   1.986   0.061   3.424
   18        1.376   1.986   0.061   3.424
   19        1.367   2.015   0.060   3.442
   20        1.367   2.015   0.060   3.442
tot         18.703  25.510  64.018 108.231